
 *** WARNING in mp2_gpw.F:1071 :: WFC_GPW%EPS_GRID has been set to ***
 *** QS%EPS_PGF_ORB                                                ***

                  512 (U)
 DBCSR| Multiplication stack size                                          30000 (D)
 DBCSR| Maximum elements for images                                    UNLIMITED (U)
 DBCSR| Multiplicative factor virtual images                                   1 (U)
 DBCSR| Use multiplication densification                                       F (D)
 DBCSR| Multiplication size stacks                                             3 (U)
 DBCSR| Use memory pool for CPU allocation                                     F (U)
 DBCSR| Number of 3D layers                                               SINGLE (U)
 DBCSR| Use MPI memory allocation                                              F (U)
 DBCSR| Use RMA algorithm                                                      F (U)
 DBCSR| Use Communication thread                                               T (U)
 DBCSR| Communication thread load                                             87 (D)
 DBCSR| MPI: My process id                                                     0
 DBCSR| MPI: Number of processes                                              16
 DBCSR| OMP: Current number of threads                                         1
 DBCSR| OMP: Max number of threads                                             1
 DBCSR| ACC: Number of devices/node                                            2
 DBCSR| ACC: Number of stack-buffers per thread                                8 (U)
 DBCSR| ACC: Avoid driver after busy                                           F (U)
 DBCSR| ACC: Process inhomogeneous stacks                                      T (U)
 DBCSR| ACC: Min. flop for processing                                          0 (U)
 DBCSR| ACC: Use G2G algorithm                                                 F (D)
 DBCSR| ACC: Min. flop for sorting                                          4000 (U)
 DBCSR| ACC: Number of binning bins                                         4096 (U)
 DBCSR| ACC: Size of binning bins                                             16 (U)
 DBCSR| ACC: GPU backend is enabled                                            T (D)
 DBCSR| Split modifier for TAS multiplication algorithm                  1.0E+00 (U)


  **** **** ******  **  PROGRAM STARTED AT               2026-10-02 14:18:55.225
 ***** ** ***  *** **   PROGRAM STARTED ON                   cp2k-cuda-cli-s5e39
 **    ****   ******    PROGRAM STARTED BY                                   dev
 ***** **    ** ** **   PROGRAM PROCESS ID                                 16039
  **** **  *******  **  PROGRAM STARTED IN /workspace/cp2k-kpoint-data/advanced/
                                           al

 CP2K| version string:                 CP2K version 2026.2 (Development Version)
 CP2K| source code revision number:                                   305e089a6f
 CP2K| cp2kflags: omp libint fftw3 libxc libxc_gpu gauxc gauxc_mpi gauxc_onedft 
 CP2K|            gauxc_onedft_gradients gauxc_host parallel scalapack mpi_f08 c
 CP2K|            cosma libxs libxsmm dbcsr_acc spglib openblas libdftd4 s_dftd3
 CP2K|            3 mctc-lib tblite libvori libbqb libtorch offload_cuda greenx
 CP2K| is freely available from                            https://www.cp2k.org/
 CP2K| Program compiled at                                   2026-10-01 15:46:04
 CP2K| Program compiled on                                                      
 CP2K| Program compiled with                                  GCC version 13.3.0
 CP2K| Program compiled for                                               x86_64
 CP2K| Data directory path                                       /workspace/data
 CP2K| Input file name                                               rpa_sym.inp

 GLOBAL| Force Environment number                                              1
 GLOBAL| Basis set file name                                        BASIS_MOLOPT
 GLOBAL| Potential file name                                      GTH_POTENTIALS
 GLOBAL| MM Potential file name                                     MM_POTENTIAL
 GLOBAL| Coordinate file name                                      __STD_INPUT__
 GLOBAL| Method name                                                        CP2K
 GLOBAL| Project name                                             adv_rpa_al_sym
 GLOBAL| Run type                                                         ENERGY
 GLOBAL| FFT library                                                       FFTW3
 GLOBAL| Diagonalization library                                       ScaLAPACK
 GLOBAL| Cholesky decomposition library                                ScaLAPACK
 GLOBAL| DGEMM library                                                      BLAS
 GLOBAL| Direct generalized diagonalization requested                          F
 GLOBAL| Orthonormality check for eigenvectors                          DISABLED
 GLOBAL| Matrix multiplication library                                     COSMA
 GLOBAL| All-to-all communication in single precision                          F
 GLOBAL| Grid backend                                                       AUTO
 GLOBAL| Global print level                                               MEDIUM
 GLOBAL| MPI I/O enabled                                                       T
 GLOBAL| Total number of message passing processes                            16
 GLOBAL| Number of distributed systems (nodes)                                 1
 GLOBAL| Number of threads for this process                                    1
 GLOBAL| This output is from process                                           0
 GLOBAL| OpenMP stack size per thread (OMP_STACKSIZE)                    default
 GLOBAL| CPU model name                                       AMD EPYC Processor
 GLOBAL| CPUID                                                              1002
 GLOBAL| Compiled for CPUID                                                    0

 *** HINT in environment.F:971 :: The compiler target (generic) used to ***
 *** build this binary does not enable all instruction-set extensions   ***
 *** available on this CPU (x86_avx2). Consider reconfiguring and       ***
 *** rebuilding CP2K for this target system to enable them.             ***


 MEMORY| system memory details [Kb]
 MEMORY|                        rank 0           min           max       average
 MEMORY| MemTotal            528104844     528104844     528104844     528104844
 MEMORY| MemFree             503455616     503455616     503455616     503455616
 MEMORY| Buffers                    20            20            20            20
 MEMORY| Cached                9454068       9454068       9454068       9454068
 MEMORY| Slab                  2361196       2361196       2361196       2361196
 MEMORY| SReclaimable           683068        683068        683068        683068
 MEMORY| MemLikelyFree       513592772     513592772     513592772     513592772


 *** Fundamental physical constants (SI units) ***

 *** Literature: B. J. Mohr and B. N. Taylor,
 ***             CODATA recommended values of the fundamental physical
 ***             constants: 2006, Web Version 5.1
 ***             http://physics.nist.gov/constants

 Speed of light in vacuum [m/s]                             2.99792458000000E+08
 Magnetic constant or permeability of vacuum [N/A**2]       1.25663706143592E-06
 Electric constant or permittivity of vacuum [F/m]          8.85418781762039E-12
 Planck constant (h) [J*s]                                  6.62606896000000E-34
 Planck constant (h-bar) [J*s]                              1.05457162825177E-34
 Elementary charge [C]                                      1.60217648700000E-19
 Electron mass [kg]                                         9.10938215000000E-31
 Electron g factor [ ]                                     -2.00231930436220E+00
 Proton mass [kg]                                           1.67262163700000E-27
 Fine-structure constant                                    7.29735253760000E-03
 Rydberg constant [1/m]                                     1.09737315685270E+07
 Avogadro constant [1/mol]                                  6.02214179000000E+23
 Boltzmann constant [J/K]                                   1.38065040000000E-23
 Atomic mass unit [kg]                                      1.66053878200000E-27
 Bohr radius [m]                                            5.29177208590000E-11

 *** Conversion factors ***

 [u] -> [a.u.]                                              1.82288848426455E+03
 [Angstrom] -> [Bohr] = [a.u.]                              1.88972613288564E+00
 [a.u.] = [Bohr] -> [Angstrom]                              5.29177208590000E-01
 [a.u.] -> [s]                                              2.41888432650478E-17
 [a.u.] -> [fs]                                             2.41888432650478E-02
 [a.u.] -> [J]                                              4.35974393937059E-18
 [a.u.] -> [N]                                              8.23872205491840E-08
 [a.u.] -> [K]                                              3.15774647902944E+05
 [a.u.] -> [kJ/mol]                                         2.62549961709828E+03
 [a.u.] -> [kcal/mol]                                       6.27509468713739E+02
 [a.u.] -> [Pa]                                             2.94210107994716E+13
 [a.u.] -> [bar]                                            2.94210107994716E+08
 [a.u.] -> [atm]                                            2.90362800883016E+08
 [a.u.] -> [eV]                                             2.72113838565563E+01
 [a.u.] -> [Hz]                                             6.57968392072181E+15
 [a.u.] -> [1/cm] (wave numbers)                            2.19474631370540E+05
 [a.u./Bohr**2] -> [1/cm]                                   5.14048714338585E+03
 

 CELL| Volume [angstrom^3]:                                            16.471718
 CELL| Vector a [angstrom]:       2.856     0.000     0.000   |a| =     2.855954
 CELL| Vector b [angstrom]:       1.428     2.473     0.000   |b| =     2.855954
 CELL| Vector c [angstrom]:       1.428     0.824     2.332   |c| =     2.855955
 CELL| Angle (b,c), alpha [degree]:                                    60.000003
 CELL| Angle (a,c), beta  [degree]:                                    60.000003
 CELL| Angle (a,b), gamma [degree]:                                    60.000002
 CELL| Numerically orthorhombic:                                              NO
 CELL| Periodicity                                                           XYZ

 CELL_REF| Volume [angstrom^3]:                                        16.471718
 CELL_REF| Vector a [angstrom     2.856     0.000     0.000   |a| =     2.855954
 CELL_REF| Vector b [angstrom     1.428     2.473     0.000   |b| =     2.855954
 CELL_REF| Vector c [angstrom     1.428     0.824     2.332   |c| =     2.855955
 CELL_REF| Angle (b,c), alpha [degree]:                                60.000003
 CELL_REF| Angle (a,c), beta  [degree]:                                60.000003
 CELL_REF| Angle (a,b), gamma [degree]:                                60.000002
 CELL_REF| Numerically orthorhombic:                                          NO
 CELL_REF| Periodicity                                                       XYZ

 GENERATE|  Preliminary Number of Bonds generated:                             0
 GENERATE|  Achieved consistency in connectivity generation.

 *** WARNING in qs_environment.F:818 :: Atomic k-point symmetry is ***
 *** currently not implemented for LOW_SCALING RPA; restricting to ***
 *** inversion/time-reversal symmetry.                             ***


 *******************************************************************************
 *******************************************************************************
 **                                                                           **
 **     #####                         ##              ##                      **
 **    ##   ##            ##          ##              ##                      **
 **   ##     ##                       ##            ######                    **
 **   ##     ##  ##   ##  ##   #####  ##  ##   ####   ##    #####    #####    **
 **   ##     ##  ##   ##  ##  ##      ## ##   ##      ##   ##   ##  ##   ##   **
 **   ##  ## ##  ##   ##  ##  ##      ####     ###    ##   ######   ######    **
 **    ##  ###   ##   ##  ##  ##      ## ##      ##   ##   ##       ##        **
 **     #######   #####   ##   #####  ##  ##  ####    ##    #####   ##        **
 **           ##                                                    ##        **
 **                                                                           **
 **                                                ... make the atoms dance   **
 **                                                                           **
 **            Copyright (C) by CP2K developers group (2000-2026)             **
 **                      J. Chem. Phys. 152, 194103 (2020)                    **
 **                                                                           **
 *******************************************************************************

 *** WARNING in qs_environment.F:2322 :: More added MOs requested than     ***
 *** available. The full set of unoccupied MOs will be used. Use           ***
 *** 'ADDED_MOS -1' to always use all available MOs and to get rid of this ***
 *** warning.                                                              ***


 DFT| Spin restricted Kohn-Sham (RKS) calculation                            RKS
 DFT| Multiplicity                                                             2
 DFT| Number of spin states                                                    1
 DFT| Charge                                                                   0
 DFT| Self-interaction correction (SIC)                                       NO
 DFT| Cutoffs: density                                              1.000000E-10
 DFT|          gradient                                             1.000000E-10
 DFT|          tau                                                  1.000000E-10
 DFT|          cutoff_smoothing_range                               0.000000E+00
 DFT| XC density smoothing                                                  NONE
 DFT| XC derivatives                                                          PW

 FUNCTIONAL| PBE:
 FUNCTIONAL| J.P.Perdew, K.Burke, M.Ernzerhof, Phys. Rev. Letter, vol. 77, n 18,
 FUNCTIONAL|  pp. 3865-3868, (1996) {spin unpolarized}                          


 QS| Method:                                                                 GPW
 QS| Density plane wave grid type                        NON-SPHERICAL FULLSPACE
 QS| Number of grid levels:                                                    4
 QS| Density cutoff [a.u.]:                                                300.0
 QS| Multi grid cutoff [a.u.]: 1) grid level                               300.0
 QS|                           2) grid level                               100.0
 QS|                           3) grid level                                33.3
 QS|                           4) grid level                                11.1
 QS| Grid level progression factor:                                          3.0
 QS| Relative density cutoff [a.u.]:                                        30.0
 QS| Interaction thresholds: eps_pgf_orb:                                1.0E-05
 QS|                         eps_filter_matrix:                          0.0E+00
 QS|                         eps_core_charge:                            1.0E-14
 QS|                         eps_rho_gspace:                             1.0E-12
 QS|                         eps_rho_rspace:                             1.0E-12
 QS|                         eps_gvg_rspace:                             1.0E-06
 QS|                         eps_ppl:                                    1.0E-02
 QS|                         eps_ppnl:                                   1.0E-08


 ATOMIC KIND INFORMATION

  1. Atomic kind: Al                                    Number of atoms:       1

     Orbital Basis Set                                        DZVP-MOLOPT-SR-GTH

       Number of orbital shell sets:                                           1
       Number of orbital shells:                                               5
       Number of primitive Cartesian functions:                                4
       Number of Cartesian basis functions:                                   14
       Number of spherical basis functions:                                   13
       Norm type:                                                              2

       Normalised Cartesian orbitals:

                        Set   Shell   Orbital            Exponent    Coefficient

                          1       1    2s                1.212902       0.147703
                                                         0.454181       0.176942
                                                         0.242419      -0.255412
                                                         0.078268      -0.047918

                          1       2    3s                1.212902      -0.205401
                                                         0.454181      -0.282784
                                                         0.242419       0.451246
                                                         0.078268      -0.188270

                          1       3    3px               1.212902       0.054477
                                                         0.454181       0.028713
                                                         0.242419      -0.164201
                                                         0.078268      -0.027375
                          1       3    3py               1.212902       0.054477
                                                         0.454181       0.028713
                                                         0.242419      -0.164201
                                                         0.078268      -0.027375
                          1       3    3pz               1.212902       0.054477
                                                         0.454181       0.028713
                                                         0.242419      -0.164201
                                                         0.078268      -0.027375

                          1       4    4px               1.212902      -0.161995
                                                         0.454181       0.034524
                                                         0.242419       0.284421
                                                         0.078268      -0.077718
                          1       4    4py               1.212902      -0.161995
                                                         0.454181       0.034524
                                                         0.242419       0.284421
                                                         0.078268      -0.077718
                          1       4    4pz               1.212902      -0.161995
                                                         0.454181       0.034524
                                                         0.242419       0.284421
                                                         0.078268      -0.077718

                          1       5    4dx2              1.212902       0.283929
                                                         0.454181       0.086552
                                                         0.242419       0.083045
                                                         0.078268       0.004803
                          1       5    4dxy              1.212902       0.491779
                                                         0.454181       0.149912
                                                         0.242419       0.143839
                                                         0.078268       0.008319
                          1       5    4dxz              1.212902       0.491779
                                                         0.454181       0.149912
                                                         0.242419       0.143839
                                                         0.078268       0.008319
                          1       5    4dy2              1.212902       0.283929
                                                         0.454181       0.086552
                                                         0.242419       0.083045
                                                         0.078268       0.004803
                          1       5    4dyz              1.212902       0.491779
                                                         0.454181       0.149912
                                                         0.242419       0.143839
                                                         0.078268       0.008319
                          1       5    4dz2              1.212902       0.283929
                                                         0.454181       0.086552
                                                         0.242419       0.083045
                                                         0.078268       0.004803

     RI HFX Basis Set                                RI_45_4_4_3_2_0_0_0_1.7e-06

       Number of orbital shell sets:                                          13
       Number of orbital shells:                                              13
       Number of primitive Cartesian functions:                               13
       Number of Cartesian basis functions:                                   54
       Number of spherical basis functions:                                   45
       Norm type:                                                              2

       Normalised Cartesian orbitals:

                        Set   Shell   Orbital            Exponent    Coefficient

                          1       1    1s                0.135135       0.158850

                          2       1   12fx3              0.169887       0.027278
                          2       1   12fx2y             0.169887       0.060996
                          2       1   12fx2z             0.169887       0.060996
                          2       1   12fxy2             0.169887       0.060996
                          2       1   12fxyz             0.169887       0.105648
                          2       1   12fxz2             0.169887       0.060996
                          2       1   12fy3              0.169887       0.027278
                          2       1   12fy2z             0.169887       0.060996
                          2       1   12fyz2             0.169887       0.060996
                          2       1   12fz3              0.169887       0.027278

                          3       1    5px               0.180472       0.167669
                          3       1    5py               0.180472       0.167669
                          3       1    5pz               0.180472       0.167669

                          4       1    9dx2              0.209858       0.107097
                          4       1    9dxy              0.209858       0.185498
                          4       1    9dxz              0.209858       0.185498
                          4       1    9dy2              0.209858       0.107097
                          4       1    9dyz              0.209858       0.185498
                          4       1    9dz2              0.209858       0.107097

                          5       1    6px               0.350736       0.384739
                          5       1    6py               0.350736       0.384739
                          5       1    6pz               0.350736       0.384739

                          6       1    2s                0.429773       0.378303

                          7       1   10dx2              0.553768       0.585105
                          7       1   10dxy              0.553768       1.013431
                          7       1   10dxz              0.553768       1.013431
                          7       1   10dy2              0.553768       0.585105
                          7       1   10dyz              0.553768       1.013431
                          7       1   10dz2              0.553768       0.585105

                          8       1    7px               0.654552       0.839209
                          8       1    7py               0.654552       0.839209
                          8       1    7pz               0.654552       0.839209

                          9       1   13fx3              0.748589       0.767366
                          9       1   13fx2y             0.748589       1.715883
                          9       1   13fx2z             0.748589       1.715883
                          9       1   13fxy2             0.748589       1.715883
                          9       1   13fxyz             0.748589       2.971997
                          9       1   13fxz2             0.748589       1.715883
                          9       1   13fy3              0.748589       0.767366
                          9       1   13fy2z             0.748589       1.715883
                          9       1   13fyz2             0.748589       1.715883
                          9       1   13fz3              0.748589       0.767366

                         10       1    3s                1.160588       0.796927

                         11       1   11dx2              1.274422       2.515983
                         11       1   11dxy              1.274422       4.357811
                         11       1   11dxz              1.274422       4.357811
                         11       1   11dy2              1.274422       2.515983
                         11       1   11dyz              1.274422       4.357811
                         11       1   11dz2              1.274422       2.515983

                         12       1    8px               1.513178       2.392228
                         12       1    8py               1.513178       2.392228
                         12       1    8pz               1.513178       2.392228

                         13       1    4s                1.901412       1.154030

     RI Auxiliary Basis Set                         Al-RI-AUX-DZVP-MOLOPT-SR-GTH

       Number of orbital shell sets:                                           2
       Number of orbital shells:                                              12
       Number of primitive Cartesian functions:                                6
       Number of Cartesian basis functions:                                   42
       Number of spherical basis functions:                                   36
       Norm type:                                                              2

       Normalised Cartesian orbitals:

                        Set   Shell   Orbital            Exponent    Coefficient

                          1       1    1s                1.643263       1.034404
                                                         0.912924       0.000000
                                                         0.507180       0.000000
                                                         0.281767       0.000000
                                                         0.156537       0.000000

                          1       2    2s                1.643263      -2.802309
                                                         0.912924       1.922203
                                                         0.507180       0.000000
                                                         0.281767       0.000000
                                                         0.156537       0.000000

                          1       3    3s                1.643263       4.201001
                                                         0.912924      -5.647888
                                                         0.507180       2.134509
                                                         0.281767       0.000000
                                                         0.156537       0.000000

                          1       4    4s                1.643263      -4.614586
                                                         0.912924       8.684367
                                                         0.507180      -6.435243
                                                         0.281767       1.843526
                                                         0.156537       0.000000

                          1       5    5s                1.643263       4.255690
                                                         0.912924      -9.637713
                                                         0.507180       9.998436
                                                         0.281767      -5.618115
                                                         0.156537       1.392764

                          1       6    2px               1.643263       2.652002
                                                         0.912924       0.000000
                                                         0.507180       0.000000
                                                         0.281767       0.000000
                                                         0.156537       0.000000
                          1       6    2py               1.643263       2.652002
                                                         0.912924       0.000000
                                                         0.507180       0.000000
                                                         0.281767       0.000000
                                                         0.156537       0.000000
                          1       6    2pz               1.643263       2.652002
                                                         0.912924       0.000000
                                                         0.507180       0.000000
                                                         0.281767       0.000000
                                                         0.156537       0.000000

                          1       7    3px               1.643263      -5.444612
                                                         0.912924       2.904730
                                                         0.507180       0.000000
                                                         0.281767       0.000000
                                                         0.156537       0.000000
                          1       7    3py               1.643263      -5.444612
                                                         0.912924       2.904730
                                                         0.507180       0.000000
                                                         0.281767       0.000000
                                                         0.156537       0.000000
                          1       7    3pz               1.643263      -5.444612
                                                         0.912924       2.904730
                                                         0.507180       0.000000
                                                         0.281767       0.000000
                                                         0.156537       0.000000

                          1       8    4px               1.643263       2.561336
                                                         0.912924      -2.575446
                                                         0.507180       0.784784
                                                         0.281767       0.108872
                                                         0.156537       0.052218
                          1       8    4py               1.643263       2.561336
                                                         0.912924      -2.575446
                                                         0.507180       0.784784
                                                         0.281767       0.108872
                                                         0.156537       0.052218
                          1       8    4pz               1.643263       2.561336
                                                         0.912924      -2.575446
                                                         0.507180       0.784784
                                                         0.281767       0.108872
                                                         0.156537       0.052218

                          1       9    3dx2              1.643263       3.925516
                                                         0.912924       0.000000
                                                         0.507180       0.000000
                                                         0.281767       0.000000
                                                         0.156537       0.000000
                          1       9    3dxy              1.643263       6.799192
                                                         0.912924       0.000000
                                                         0.507180       0.000000
                                                         0.281767       0.000000
                                                         0.156537       0.000000
                          1       9    3dxz              1.643263       6.799192
                                                         0.912924       0.000000
                                                         0.507180       0.000000
                                                         0.281767       0.000000
                                                         0.156537       0.000000
                          1       9    3dy2              1.643263       3.925516
                                                         0.912924       0.000000
                                                         0.507180       0.000000
                                                         0.281767       0.000000
                                                         0.156537       0.000000
                          1       9    3dyz              1.643263       6.799192
                                                         0.912924       0.000000
                                                         0.507180       0.000000
                                                         0.281767       0.000000
                                                         0.156537       0.000000
                          1       9    3dz2              1.643263       3.925516
                                                         0.912924       0.000000
                                                         0.507180       0.000000
                                                         0.281767       0.000000
                                                         0.156537       0.000000

                          1      10    4dx2              1.643263      -6.661724
                                                         0.912924       2.764274
                                                         0.507180       0.000000
                                                         0.281767       0.000000
                                                         0.156537       0.000000
                          1      10    4dxy              1.643263     -11.538445
                                                         0.912924       4.787862
                                                         0.507180       0.000000
                                                         0.281767       0.000000
                                                         0.156537       0.000000
                          1      10    4dxz              1.643263     -11.538445
                                                         0.912924       4.787862
                                                         0.507180       0.000000
                                                         0.281767       0.000000
                                                         0.156537       0.000000
                          1      10    4dy2              1.643263      -6.661724
                                                         0.912924       2.764274
                                                         0.507180       0.000000
                                                         0.281767       0.000000
                                                         0.156537       0.000000
                          1      10    4dyz              1.643263     -11.538445
                                                         0.912924       4.787862
                                                         0.507180       0.000000
                                                         0.281767       0.000000
                                                         0.156537       0.000000
                          1      10    4dz2              1.643263      -6.661724
                                                         0.912924       2.764274
                                                         0.507180       0.000000
                                                         0.281767       0.000000
                                                         0.156537       0.000000

                          1      11    5dx2              1.643263       2.744151
                                                         0.912924      -2.067211
                                                         0.507180       0.507071
                                                         0.281767       0.066468
                                                         0.156537       0.023762
                          1      11    5dxy              1.643263       4.753009
                                                         0.912924      -3.580514
                                                         0.507180       0.878274
                                                         0.281767       0.115125
                                                         0.156537       0.041157
                          1      11    5dxz              1.643263       4.753009
                                                         0.912924      -3.580514
                                                         0.507180       0.878274
                                                         0.281767       0.115125
                                                         0.156537       0.041157
                          1      11    5dy2              1.643263       2.744151
                                                         0.912924      -2.067211
                                                         0.507180       0.507071
                                                         0.281767       0.066468
                                                         0.156537       0.023762
                          1      11    5dyz              1.643263       4.753009
                                                         0.912924      -3.580514
                                                         0.507180       0.878274
                                                         0.281767       0.115125
                                                         0.156537       0.041157
                          1      11    5dz2              1.643263       2.744151
                                                         0.912924      -2.067211
                                                         0.507180       0.507071
                                                         0.281767       0.066468
                                                         0.156537       0.023762

                          2       1    4fx3              0.156537       0.022690
                          2       1    4fx2y             0.156537       0.050737
                          2       1    4fx2z             0.156537       0.050737
                          2       1    4fxy2             0.156537       0.050737
                          2       1    4fxyz             0.156537       0.087880
                          2       1    4fxz2             0.156537       0.050737
                          2       1    4fy3              0.156537       0.022690
                          2       1    4fy2z             0.156537       0.050737
                          2       1    4fyz2             0.156537       0.050737
                          2       1    4fz3              0.156537       0.022690

       Atomic covalent radius [Angstrom]:                                  1.180

       Atomic van der Waals radius [Angstrom]:                             1.840

     GTH Potential information for                                    GTH-PBE-q3

       Description:                       Goedecker-Teter-Hutter pseudopotential
                                           Goedecker et al., PRB 54, 1703 (1996)
                                          Hartwigsen et al., PRB 58, 3641 (1998)
                                                      Krack, TCA 114, 145 (2005)

       Gaussian exponent of the core charge distribution:               2.469136
       Electronic configuration (s p d ...):                               2   1

       Parameters of the local part of the GTH pseudopotential:

                          rloc        C1          C2          C3          C4
                        0.450000   -7.554761

       Parameters of the non-local part of the GTH pseudopotential:

                   l      r(l)      h(i,j,l)

                   0    0.487435    6.959938   -1.888836
                                   -1.888836    2.438477
                   1    0.562189    1.865299


 MOLECULE KIND INFORMATION


 All atoms are their own molecule, skipping detailed information


 TOTAL NUMBERS AND MAXIMUM NUMBERS

  Total number of            - Atomic kinds:                                   1
                             - Atoms:                                          1
                             - Shell sets:                                     1
                             - Shells:                                         5
                             - Primitive Cartesian functions:                  4
                             - Cartesian basis functions:                     14
                             - Spherical basis functions:                     13

  Maximum angular momentum of- Orbital basis functions:                        2
                             - Local part of the GTH pseudopotential:          0
                             - Non-local part of the GTH pseudopotential:      2


 MODULE QUICKSTEP: ATOMIC COORDINATES IN ANGSTROM

   Atom Kind Element         X             Y             Z       Z(eff)     Mass
      1    1 Al   13      0.000000      0.000000      0.000000   3.0000  26.9815



 SCF PARAMETERS         Density guess:                                    ATOMIC
                        --------------------------------------------------------
                        max_scf:                                             200
                        max_scf_history:                                       0
                        max_diis:                                              4
                        --------------------------------------------------------
                        eps_scf:                                        1.00E-05
                        eps_scf_history:                                0.00E+00
                        eps_diis:                                       1.00E-01
                        eps_eigval:                                     1.00E-05
                        --------------------------------------------------------
                        level_shift [a.u.]:                             0.000000
                        SCF update method:                                MIXING
                        added MOs                                        11    0
                        --------------------------------------------------------
                        Mixing method:                            BROYDEN_MIXING
                                                charge density mixing in g-space
                        --------------------------------------------------------
                        Smear method:                                FERMI_DIRAC
                        Electronic temperature [K]:                        300.0
                        Electronic temperature [a.u.]:                  9.50E-04
                        Accuracy threshold:                             1.00E-10
                        --------------------------------------------------------
                        No outer SCF

 PW_GRID| Information for grid number                                          1
 PW_GRID| Grid distributed over                                    16 processors
 PW_GRID| Real space group dimensions                                    16    1
 PW_GRID| the grid is blocked:                                                NO
 PW_GRID| Cutoff [a.u.]                                                    300.0
 PW_GRID| spherical cutoff:                                                   NO
 PW_GRID|   Bounds   1            -22      22                Points:          45
 PW_GRID|   Bounds   2            -22      22                Points:          45
 PW_GRID|   Bounds   3            -22      22                Points:          45
 PW_GRID| Volume element (a.u.^3)  0.1220E-02     Volume (a.u.^3)       111.1567
 PW_GRID| Grid span                                                    FULLSPACE
 PW_GRID|   Distribution                         Average         Max         Min
 PW_GRID|   G-Vectors                             5695.3        5715        5670
 PW_GRID|   G-Rays                                 126.6         127         126
 PW_GRID|   Real Space Points                     5695.3        6075        4050

 PW_GRID| Information for grid number                                          2
 PW_GRID| Number of the reference grid                                         1
 PW_GRID| Grid distributed over                                    16 processors
 PW_GRID| Real space group dimensions                                    16    1
 PW_GRID| the grid is blocked:                                                NO
 PW_GRID| Cutoff [a.u.]                                                    100.0
 PW_GRID| spherical cutoff:                                                   NO
 PW_GRID|   Bounds   1            -12      12                Points:          25
 PW_GRID|   Bounds   2            -12      12                Points:          25
 PW_GRID|   Bounds   3            -12      12                Points:          25
 PW_GRID| Volume element (a.u.^3)  0.7114E-02     Volume (a.u.^3)       111.1567
 PW_GRID| Grid span                                                    FULLSPACE
 PW_GRID|   Distribution                         Average         Max         Min
 PW_GRID|   G-Vectors                              976.6        1050         950
 PW_GRID|   G-Rays                                  39.1          42          38
 PW_GRID|   Real Space Points                      976.6        1250         625

 PW_GRID| Information for grid number                                          3
 PW_GRID| Number of the reference grid                                         1
 PW_GRID| Grid distributed over                                    16 processors
 PW_GRID| Real space group dimensions                                     4    4
 PW_GRID| the grid is blocked:                                                NO
 PW_GRID| Cutoff [a.u.]                                                     33.3
 PW_GRID| spherical cutoff:                                                   NO
 PW_GRID|   Bounds   1             -7       7                Points:          15
 PW_GRID|   Bounds   2             -7       7                Points:          15
 PW_GRID|   Bounds   3             -7       7                Points:          15
 PW_GRID| Volume element (a.u.^3)  0.3294E-01     Volume (a.u.^3)       111.1567
 PW_GRID| Grid span                                                    FULLSPACE
 PW_GRID|   Distribution                         Average         Max         Min
 PW_GRID|   G-Vectors                              210.9         285         150
 PW_GRID|   G-Rays                                  14.1          19          10
 PW_GRID|   Real Space Points                      210.9         240         135

 PW_GRID| Information for grid number                                          4
 PW_GRID| Number of the reference grid                                         1
 PW_GRID| Grid distributed over                                    16 processors
 PW_GRID| Real space group dimensions                                     4    4
 PW_GRID| the grid is blocked:                                                NO
 PW_GRID| Cutoff [a.u.]                                                     11.1
 PW_GRID| spherical cutoff:                                                   NO
 PW_GRID|   Bounds   1             -4       4                Points:           9
 PW_GRID|   Bounds   2             -4       4                Points:           9
 PW_GRID|   Bounds   3             -4       4                Points:           9
 PW_GRID| Volume element (a.u.^3)  0.1525         Volume (a.u.^3)       111.1567
 PW_GRID| Grid span                                                    FULLSPACE
 PW_GRID|   Distribution                         Average         Max         Min
 PW_GRID|   G-Vectors                               45.6          63          36
 PW_GRID|   G-Rays                                   5.1           7           4
 PW_GRID|   Real Space Points                       45.6          81          36

 POISSON| Solver                                                        PERIODIC
 POISSON| Periodicity                                                        XYZ

 RS_GRID| Information for grid number                                          1
 RS_GRID|   Bounds   1            -22      22                Points:          45
 RS_GRID|   Bounds   2            -22      22                Points:          45
 RS_GRID|   Bounds   3            -22      22                Points:          45
 RS_GRID| Real space fully replicated
 RS_GRID| Group size                                                           1

 RS_GRID| Information for grid number                                          2
 RS_GRID|   Bounds   1            -12      12                Points:          25
 RS_GRID|   Bounds   2            -12      12                Points:          25
 RS_GRID|   Bounds   3            -12      12                Points:          25
 RS_GRID| Real space fully replicated
 RS_GRID| Group size                                                           1

 RS_GRID| Information for grid number                                          3
 RS_GRID|   Bounds   1             -7       7                Points:          15
 RS_GRID|   Bounds   2             -7       7                Points:          15
 RS_GRID|   Bounds   3             -7       7                Points:          15
 RS_GRID| Real space fully replicated
 RS_GRID| Group size                                                           1

 RS_GRID| Information for grid number                                          4
 RS_GRID|   Bounds   1             -4       4                Points:           9
 RS_GRID|   Bounds   2             -4       4                Points:           9
 RS_GRID|   Bounds   3             -4       4                Points:           9
 RS_GRID| Real space fully replicated
 RS_GRID| Group size                                                           1

 *******************************************************************************
                                    Kpoints
 *******************************************************************************
 BRILLOUIN| K-point scheme                                        Monkhorst-Pack
 BRILLOUIN| K-Point grid                                             4    4    4
 BRILLOUIN| K-point symmetry accuracy                               0.100000E-05
 BRILLOUIN| K-Point point group symmetrization                                ON
 BRILLOUIN| Restrict symmetry to inversion                                    ON
 BRILLOUIN| Wavefunction type                                            COMPLEX
 BRILLOUIN| List of Kpoints [2 Pi/Bohr]                                       32
 BRILLOUIN| Number           Weight            X              Y              Z
 BRILLOUIN|     1           0.03125       -0.37500       -0.37500       -0.37500
 BRILLOUIN|     2           0.03125       -0.37500       -0.37500       -0.12500
 BRILLOUIN|     3           0.03125       -0.37500       -0.37500        0.12500
 BRILLOUIN|     4           0.03125       -0.37500       -0.37500        0.37500
 BRILLOUIN|     5           0.03125       -0.37500       -0.12500       -0.37500
 BRILLOUIN|     6           0.03125       -0.37500       -0.12500       -0.12500
 BRILLOUIN|     7           0.03125       -0.37500       -0.12500        0.12500
 BRILLOUIN|     8           0.03125       -0.37500       -0.12500        0.37500
 BRILLOUIN|     9           0.03125       -0.37500        0.12500       -0.37500
 BRILLOUIN|    10           0.03125       -0.37500        0.12500       -0.12500
 BRILLOUIN|    11           0.03125       -0.37500        0.12500        0.12500
 BRILLOUIN|    12           0.03125       -0.37500        0.12500        0.37500
 BRILLOUIN|    13           0.03125       -0.37500        0.37500       -0.37500
 BRILLOUIN|    14           0.03125       -0.37500        0.37500       -0.12500
 BRILLOUIN|    15           0.03125       -0.37500        0.37500        0.12500
 BRILLOUIN|    16           0.03125       -0.37500        0.37500        0.37500
 BRILLOUIN|    17           0.03125       -0.12500       -0.37500       -0.37500
 BRILLOUIN|    18           0.03125       -0.12500       -0.37500       -0.12500
 BRILLOUIN|    19           0.03125       -0.12500       -0.37500        0.12500
 BRILLOUIN|    20           0.03125       -0.12500       -0.37500        0.37500
 BRILLOUIN|    21           0.03125       -0.12500       -0.12500       -0.37500
 BRILLOUIN|    22           0.03125       -0.12500       -0.12500       -0.12500
 BRILLOUIN|    23           0.03125       -0.12500       -0.12500        0.12500
 BRILLOUIN|    24           0.03125       -0.12500       -0.12500        0.37500
 BRILLOUIN|    25           0.03125       -0.12500        0.12500       -0.37500
 BRILLOUIN|    26           0.03125       -0.12500        0.12500       -0.12500
 BRILLOUIN|    27           0.03125       -0.12500        0.12500        0.12500
 BRILLOUIN|    28           0.03125       -0.12500        0.12500        0.37500
 BRILLOUIN|    29           0.03125       -0.12500        0.37500       -0.37500
 BRILLOUIN|    30           0.03125       -0.12500        0.37500       -0.12500
 BRILLOUIN|    31           0.03125       -0.12500        0.37500        0.12500
 BRILLOUIN|    32           0.03125       -0.12500        0.37500        0.37500
 *******************************************************************************
 
 RI-RPA| using GPW style
 

 Extrapolation method: initial_guess

 Atomic guess: The first density matrix is obtained in terms of atomic orbitals
               and electronic configurations assigned to each atomic kind

 Guess for atomic kind: Al

 Electronic structure
    Total number of core electrons                                         10.00
    Total number of valence electrons                                       3.00
    Total number of electrons                                              13.00
    Multiplicity                                                   not specified
    S   [  2.00  2.00] 2.00
    P   [  6.00] 1.00


 *******************************************************************************
                  Iteration          Convergence                     Energy [au]
 *******************************************************************************
                          1        0.305915E-01                  -1.859601069933
                          2        0.524000E-02                  -1.861110285590
                          3        0.579159E-05                  -1.861153364112
                          4        0.938920E-07                  -1.861153364138

 Energy components [Hartree]           Total Energy ::           -1.861153364138
                                        Band Energy ::           -0.553286143720
                                     Kinetic Energy ::            0.692453408885
                                   Potential Energy ::           -2.553606773023
                                      Virial (-V/T) ::            3.687766917250
                                        Core Energy ::           -2.745654507139
                                          XC Energy ::           -0.605922783649
                                     Coulomb Energy ::            1.490423926650
                       Total Pseudopotential Energy ::           -3.492083735852
                       Local Pseudopotential Energy ::           -3.961694608532
                    Nonlocal Pseudopotential Energy ::            0.469610872680
                                        Confinement ::            0.539758198286

 Orbital energies  State     L     Occupation   Energy[a.u.]          Energy[eV]

                       1     0          2.000      -0.248205           -6.754004

                       1     1          1.000      -0.056876           -1.547674


 Total Electron Density at R=0:                                         0.000121
 Re-scaling the density matrix to get the right number of electrons
                  # Electrons              Trace(P)               Scaling factor
                            3                 3.000                        1.000

 Number of electrons:                                                          3
 Number of occupied orbitals:                                                  2
 Number of molecular orbitals:                                                13

 Number of orbital functions:                                                 13
 Number of independent orbital functions:                                     13


 SCF WAVEFUNCTION OPTIMIZATION

  Step     Update method      Time    Convergence         Total energy    Change
  ------------------------------------------------------------------------------
     1 NoMix/Diag. 0.15E+00    0.5     0.97333780        -2.2096798876 -2.21E+00
     2 Broy./Diag. 0.15E+00    0.5     0.00231296        -2.1610105910  4.87E-02
     3 Broy./Diag. 0.15E+00    0.7     0.01346654        -2.0725396484  8.85E-02
     4 Broy./Diag. 0.15E+00    0.6     0.00002668        -2.0707113478  1.83E-03
     5 Broy./Diag. 0.15E+00    0.7     0.00012322        -2.0695893271  1.12E-03
     6 Broy./Diag. 0.15E+00    0.6     0.00000102        -2.0695758483  1.35E-05

  *** SCF run converged in     6 steps ***


  Electronic density on regular grids:         -3.0000000000       -0.0000000000
  Core density on regular grids:                3.0000000000       -0.0000000000
  Total charge density on r-space grids:       -0.0000000000
  Total charge density g-space grids:          -0.0000000000

  Overlap energy of the core charge distribution:               0.00000000000000
  Self energy of the core charge distribution:                 -5.64189583547756
  Core Hamiltonian energy:                                      1.18813403060162
  Hartree energy:                                               3.18921558538722
  Exchange-correlation energy:                                 -0.80478258689704
  Electronic entropic energy:                                  -0.00024704194709
  Fermi energy:                                                 0.26509986447736

  Total energy:                                                -2.06957584833061
  Total energy (extrapolated to T->0):                         -2.06945232735706

 !-----------------------------------------------------------------------------!
                     Mulliken Population Analysis

 #  Atom  Element  Kind  Atomic population                           Net charge
       1     Al       1          3.000000                              0.000000
 # Total charge                              3.000000                  0.000000

 !-----------------------------------------------------------------------------!

 !-----------------------------------------------------------------------------!
                           Hirshfeld Charges

  #Atom  Element  Kind  Ref Charge     Population                    Net charge
      1       Al     1       3.000          3.000                        -0.000

  Total Charge                                                           -0.000
 !-----------------------------------------------------------------------------!


 RI-RPA section
 --------------


 *** WARNING in mp2_gpw.F:1071 :: WFC_GPW%EPS_GRID has been set to ***
 *** QS%EPS_PGF_ORB                                                ***

  RI_INFO| RI metric:                                                    OVERLAP
  RI_INFO| Number of auxiliary basis functions:                               36
  GENERAL_INFO| Number of basis functions:                                    13
  GENERAL_INFO| Number of occupied orbitals:                                   2
  GENERAL_INFO| Number of virtual orbitals:                                   11
