 DBCSR| CPU Multiplication driver                                           XSMM (U)
 DBCSR| Multrec recursion limit                                              512 (U)
 DBCSR| Multiplication stack size                                          30000 (D)
 DBCSR| Maximum elements for images                                    UNLIMITED (U)
 DBCSR| Multiplicative factor virtual images                                   1 (U)
 DBCSR| Use multiplication densification                                       F (D)
 DBCSR| Multiplication size stacks                                             3 (U)
 DBCSR| Use memory pool for CPU allocation                                     F (U)
 DBCSR| Number of 3D layers                                               SINGLE (U)
 DBCSR| Use MPI memory allocation                                              F (U)
 DBCSR| Use RMA algorithm                                                      F (U)
 DBCSR| Use Communication thread                                               T (U)
 DBCSR| Communication thread load                                             87 (D)
 DBCSR| MPI: My process id                                                     0
 DBCSR| MPI: Number of processes                                               4
 DBCSR| OMP: Current number of threads                                         1
 DBCSR| OMP: Max number of threads                                             1
 DBCSR| ACC: Number of devices/node                                            2
 DBCSR| ACC: Number of stack-buffers per thread                                8 (U)
 DBCSR| ACC: Avoid driver after busy                                           F (U)
 DBCSR| ACC: Process inhomogeneous stacks                                      T (U)
 DBCSR| ACC: Min. flop for processing                                          0 (U)
 DBCSR| ACC: Use G2G algorithm                                                 F (D)
 DBCSR| ACC: Min. flop for sorting                                          4000 (U)
 DBCSR| ACC: Number of binning bins                                         4096 (U)
 DBCSR| ACC: Size of binning bins                                             16 (U)
 DBCSR| ACC: GPU backend is enabled                                            T (D)
 DBCSR| Split modifier for TAS multiplication algorithm                  1.0E+00 (U)


  **** **** ******  **  PROGRAM STARTED AT               2026-10-02 16:45:14.607
 ***** ** ***  *** **   PROGRAM STARTED ON                   cp2k-cuda-cli-s5e39
 **    ****   ******    PROGRAM STARTED BY                                   dev
 ***** **    ** ** **   PROGRAM PROCESS ID                                 14361
  **** **  *******  **  PROGRAM STARTED IN /workspace/cp2k-kpoint-data/advanced/
                                           alas

 CP2K| version string:                 CP2K version 2026.2 (Development Version)
 CP2K| source code revision number:                                   76a8009233
 CP2K| cp2kflags: omp libint fftw3 libxc libxc_gpu gauxc gauxc_mpi gauxc_onedft 
 CP2K|            gauxc_onedft_gradients gauxc_host parallel scalapack mpi_f08 c
 CP2K|            cosma libxs libxsmm dbcsr_acc spglib openblas libdftd4 s_dftd3
 CP2K|            3 mctc-lib tblite libvori libbqb libtorch offload_cuda greenx
 CP2K| is freely available from                            https://www.cp2k.org/
 CP2K| Program compiled at                                   2026-10-02 16:14:55
 CP2K| Program compiled on                                                      
 CP2K| Program compiled with                                  GCC version 13.3.0
 CP2K| Program compiled for                                               x86_64
 CP2K| Data directory path                                       /workspace/data
 CP2K| Input file name                                              admm_sym.inp

 GLOBAL| Force Environment number                                              1
 GLOBAL| Basis set file name                                     BASIS_ccGRB_UZH
 GLOBAL| Potential file name                                       POTENTIAL_UZH
 GLOBAL| MM Potential file name                                     MM_POTENTIAL
 GLOBAL| Coordinate file name                                      __STD_INPUT__
 GLOBAL| Method name                                                        CP2K
 GLOBAL| Project name                                          adv_admm_alas_sym
 GLOBAL| Run type                                                         ENERGY
 GLOBAL| FFT library                                                       FFTW3
 GLOBAL| Diagonalization library                                       ScaLAPACK
 GLOBAL| Cholesky decomposition library                                ScaLAPACK
 GLOBAL| DGEMM library                                                      BLAS
 GLOBAL| Direct generalized diagonalization requested                          F
 GLOBAL| Orthonormality check for eigenvectors                          DISABLED
 GLOBAL| Matrix multiplication library                                     COSMA
 GLOBAL| All-to-all communication in single precision                          F
 GLOBAL| Grid backend                                                       AUTO
 GLOBAL| Global print level                                               MEDIUM
 GLOBAL| MPI I/O enabled                                                       T
 GLOBAL| Total number of message passing processes                             4
 GLOBAL| Number of distributed systems (nodes)                                 1
 GLOBAL| Number of threads for this process                                    1
 GLOBAL| This output is from process                                           0
 GLOBAL| OpenMP stack size per thread (OMP_STACKSIZE)                    default
 GLOBAL| CPU model name                                       AMD EPYC Processor
 GLOBAL| CPUID                                                              1002
 GLOBAL| Compiled for CPUID                                                    0

 *** HINT in environment.F:971 :: The compiler target (generic) used to ***
 *** build this binary does not enable all instruction-set extensions   ***
 *** available on this CPU (x86_avx2). Consider reconfiguring and       ***
 *** rebuilding CP2K for this target system to enable them.             ***


 MEMORY| system memory details [Kb]
 MEMORY|                        rank 0           min           max       average
 MEMORY| MemTotal            528104844     528104844     528104844     528104844
 MEMORY| MemFree             506909468     506909468     506909468     506909468
 MEMORY| Buffers                    20            20            20            20
 MEMORY| Cached               13127528      13127528      13127528      13127528
 MEMORY| Slab                  2114696       2114696       2114696       2114696
 MEMORY| SReclaimable           534876        534876        534876        534876
 MEMORY| MemLikelyFree       520571892     520571892     520571892     520571892


 *** Fundamental physical constants (SI units) ***

 *** Literature: B. J. Mohr and B. N. Taylor,
 ***             CODATA recommended values of the fundamental physical
 ***             constants: 2006, Web Version 5.1
 ***             http://physics.nist.gov/constants

 Speed of light in vacuum [m/s]                             2.99792458000000E+08
 Magnetic constant or permeability of vacuum [N/A**2]       1.25663706143592E-06
 Electric constant or permittivity of vacuum [F/m]          8.85418781762039E-12
 Planck constant (h) [J*s]                                  6.62606896000000E-34
 Planck constant (h-bar) [J*s]                              1.05457162825177E-34
 Elementary charge [C]                                      1.60217648700000E-19
 Electron mass [kg]                                         9.10938215000000E-31
 Electron g factor [ ]                                     -2.00231930436220E+00
 Proton mass [kg]                                           1.67262163700000E-27
 Fine-structure constant                                    7.29735253760000E-03
 Rydberg constant [1/m]                                     1.09737315685270E+07
 Avogadro constant [1/mol]                                  6.02214179000000E+23
 Boltzmann constant [J/K]                                   1.38065040000000E-23
 Atomic mass unit [kg]                                      1.66053878200000E-27
 Bohr radius [m]                                            5.29177208590000E-11

 *** Conversion factors ***

 [u] -> [a.u.]                                              1.82288848426455E+03
 [Angstrom] -> [Bohr] = [a.u.]                              1.88972613288564E+00
 [a.u.] = [Bohr] -> [Angstrom]                              5.29177208590000E-01
 [a.u.] -> [s]                                              2.41888432650478E-17
 [a.u.] -> [fs]                                             2.41888432650478E-02
 [a.u.] -> [J]                                              4.35974393937059E-18
 [a.u.] -> [N]                                              8.23872205491840E-08
 [a.u.] -> [K]                                              3.15774647902944E+05
 [a.u.] -> [kJ/mol]                                         2.62549961709828E+03
 [a.u.] -> [kcal/mol]                                       6.27509468713739E+02
 [a.u.] -> [Pa]                                             2.94210107994716E+13
 [a.u.] -> [bar]                                            2.94210107994716E+08
 [a.u.] -> [atm]                                            2.90362800883016E+08
 [a.u.] -> [eV]                                             2.72113838565563E+01
 [a.u.] -> [Hz]                                             6.57968392072181E+15
 [a.u.] -> [1/cm] (wave numbers)                            2.19474631370540E+05
 [a.u./Bohr**2] -> [1/cm]                                   5.14048714338585E+03
 

 CELL| Volume [angstrom^3]:                                            45.711095
 CELL| Vector a [angstrom]:       4.013     0.000     0.000   |a| =     4.013398
 CELL| Vector b [angstrom]:       2.007     3.476     0.000   |b| =     4.013398
 CELL| Vector c [angstrom]:       2.007     1.159     3.277   |c| =     4.013397
 CELL| Angle (b,c), alpha [degree]:                                    59.999996
 CELL| Angle (a,c), beta  [degree]:                                    59.999998
 CELL| Angle (a,b), gamma [degree]:                                    59.999997
 CELL| Numerically orthorhombic:                                              NO
 CELL| Periodicity                                                           XYZ

 CELL_REF| Volume [angstrom^3]:                                        45.711095
 CELL_REF| Vector a [angstrom     4.013     0.000     0.000   |a| =     4.013398
 CELL_REF| Vector b [angstrom     2.007     3.476     0.000   |b| =     4.013398
 CELL_REF| Vector c [angstrom     2.007     1.159     3.277   |c| =     4.013397
 CELL_REF| Angle (b,c), alpha [degree]:                                59.999996
 CELL_REF| Angle (a,c), beta  [degree]:                                59.999998
 CELL_REF| Angle (a,b), gamma [degree]:                                59.999997
 CELL_REF| Numerically orthorhombic:                                          NO
 CELL_REF| Periodicity                                                       XYZ

 GENERATE|  Preliminary Number of Bonds generated:                             0
 GENERATE|  Achieved consistency in connectivity generation.

 *** WARNING in qs_environment.F:818 :: Atomic k-point symmetry is  ***
 *** currently not implemented for HFX/HF with ADMM; restricting to ***
 *** inversion/time-reversal symmetry.                              ***


 *******************************************************************************
 *******************************************************************************
 **                                                                           **
 **     #####                         ##              ##                      **
 **    ##   ##            ##          ##              ##                      **
 **   ##     ##                       ##            ######                    **
 **   ##     ##  ##   ##  ##   #####  ##  ##   ####   ##    #####    #####    **
 **   ##     ##  ##   ##  ##  ##      ## ##   ##      ##   ##   ##  ##   ##   **
 **   ##  ## ##  ##   ##  ##  ##      ####     ###    ##   ######   ######    **
 **    ##  ###   ##   ##  ##  ##      ## ##      ##   ##   ##       ##        **
 **     #######   #####   ##   #####  ##  ##  ####    ##    #####   ##        **
 **           ##                                                    ##        **
 **                                                                           **
 **                                                ... make the atoms dance   **
 **                                                                           **
 **            Copyright (C) by CP2K developers group (2000-2026)             **
 **                      J. Chem. Phys. 152, 194103 (2020)                    **
 **                                                                           **
 *******************************************************************************

 DFT| Spin restricted Kohn-Sham (RKS) calculation                            RKS
 DFT| Multiplicity                                                             1
 DFT| Number of spin states                                                    1
 DFT| Charge                                                                   0
 DFT| Self-interaction correction (SIC)                                       NO
 DFT| Cutoffs: density                                              1.000000E-10
 DFT|          gradient                                             1.000000E-10
 DFT|          tau                                                  1.000000E-10
 DFT|          cutoff_smoothing_range                               0.000000E+00
 DFT| XC density smoothing                                                  NONE
 DFT| XC derivatives                                                          PW

 FUNCTIONAL| NO EXCHANGE-CORRELATION FUNCTIONAL USED.


 QS| Method:                                                                 GPW
 QS| Density plane wave grid type                        NON-SPHERICAL FULLSPACE
 QS| Number of grid levels:                                                    4
 QS| Density cutoff [a.u.]:                                                300.0
 QS| Multi grid cutoff [a.u.]: 1) grid level                               300.0
 QS|                           2) grid level                               100.0
 QS|                           3) grid level                                33.3
 QS|                           4) grid level                                11.1
 QS| Grid level progression factor:                                          3.0
 QS| Relative density cutoff [a.u.]:                                        30.0
 QS| Interaction thresholds: eps_pgf_orb:                                1.0E-05
 QS|                         eps_filter_matrix:                          0.0E+00
 QS|                         eps_core_charge:                            1.0E-14
 QS|                         eps_rho_gspace:                             1.0E-12
 QS|                         eps_rho_rspace:                             1.0E-12
 QS|                         eps_gvg_rspace:                             1.0E-06
 QS|                         eps_ppl:                                    1.0E-02
 QS|                         eps_ppnl:                                   1.0E-08

 ADMM| Specific ADMM type specified                                         NONE
 ADMM| Density matrix purification method                                   NONE
 ADMM| Orbital projection on ADMM basis
 ADMM| Use Merlot (2014) scaling model
 ADMM| eps_filter                                                0.000000000    
 ADMM| Exchange functional in correction term                               PBEX



 ATOMIC KIND INFORMATION

  1. Atomic kind: Al                                    Number of atoms:       1

     Orbital Basis Set                                                ccGRB-D-q3

       Number of orbital shell sets:                                           2
       Number of orbital shells:                                               5
       Number of primitive Cartesian functions:                                5
       Number of Cartesian basis functions:                                   14
       Number of spherical basis functions:                                   13
       Norm type:                                                              2

       Normalised Cartesian orbitals:

                        Set   Shell   Orbital            Exponent    Coefficient

                          1       1    1s                0.907167      -0.187035
                                                         0.339154       0.063202
                                                         0.126797       0.115503
                                                         0.047404       0.016956

                          1       2    2s                0.907167       0.188654
                                                         0.339154      -0.102519
                                                         0.126797      -0.226905
                                                         0.047404       0.128528

                          1       3    2px               0.907167      -0.032942
                                                         0.339154       0.068564
                                                         0.126797       0.050666
                                                         0.047404       0.015183
                          1       3    2py               0.907167      -0.032942
                                                         0.339154       0.068564
                                                         0.126797       0.050666
                                                         0.047404       0.015183
                          1       3    2pz               0.907167      -0.032942
                                                         0.339154       0.068564
                                                         0.126797       0.050666
                                                         0.047404       0.015183

                          1       4    3px               0.907167       0.003085
                                                         0.339154      -0.059097
                                                         0.126797      -0.125668
                                                         0.047404       0.043263
                          1       4    3py               0.907167       0.003085
                                                         0.339154      -0.059097
                                                         0.126797      -0.125668
                                                         0.047404       0.043263
                          1       4    3pz               0.907167       0.003085
                                                         0.339154      -0.059097
                                                         0.126797      -0.125668
                                                         0.047404       0.043263

                          2       1    1dx2              0.189000       0.089170
                          2       1    1dxy              0.189000       0.154447
                          2       1    1dxz              0.189000       0.154447
                          2       1    1dy2              0.189000       0.089170
                          2       1    1dyz              0.189000       0.154447
                          2       1    1dz2              0.189000       0.089170

     Auxiliary Fit Basis Set                                          admm-dz-q3

       Number of orbital shell sets:                                           4
       Number of orbital shells:                                               4
       Number of primitive Cartesian functions:                                5
       Number of Cartesian basis functions:                                    8
       Number of spherical basis functions:                                    8
       Norm type:                                                              2

       Normalised Cartesian orbitals:

                        Set   Shell   Orbital            Exponent    Coefficient

                          1       1    1s                0.075337       0.102487

                          2       1    1px               0.076123       0.056995
                          2       1    1py               0.076123       0.056995
                          2       1    1pz               0.076123       0.056995

                          3       1    1s                0.975117      -0.386190
                                                         0.193324       0.261702

                          4       1    1px               0.243177       0.243413
                          4       1    1py               0.243177       0.243413
                          4       1    1pz               0.243177       0.243413

     RI HFX Basis Set                                       Al-RI-AUX-admm-dz-q3

       Number of orbital shell sets:                                           2
       Number of orbital shells:                                              11
       Number of primitive Cartesian functions:                                7
       Number of Cartesian basis functions:                                   29
       Number of spherical basis functions:                                   27
       Norm type:                                                              2

       Normalised Cartesian orbitals:

                        Set   Shell   Orbital            Exponent    Coefficient

                          1       1    1s                1.581719       1.005210
                                                         0.878733       0.000000
                                                         0.488185       0.000000
                                                         0.271214       0.000000
                                                         0.150674       0.000000

                          1       2    2s                1.581719      -2.723220
                                                         0.878733       1.867953
                                                         0.488185       0.000000
                                                         0.271214       0.000000
                                                         0.150674       0.000000

                          1       3    3s                1.581719       4.082436
                                                         0.878733      -5.488488
                                                         0.488185       2.074267
                                                         0.271214       0.000000
                                                         0.150674       0.000000

                          1       4    4s                1.581719      -4.484349
                                                         0.878733       8.439269
                                                         0.488185      -6.253621
                                                         0.271214       1.791496
                                                         0.150674       0.000000

                          1       5    5s                1.581719       4.135582
                                                         0.878733      -9.365709
                                                         0.488185       9.716251
                                                         0.271214      -5.459555
                                                         0.150674       1.353456

                          1       6    2px               1.581719       2.528434
                                                         0.878733       0.000000
                                                         0.488185       0.000000
                                                         0.271214       0.000000
                                                         0.150674       0.000000
                          1       6    2py               1.581719       2.528434
                                                         0.878733       0.000000
                                                         0.488185       0.000000
                                                         0.271214       0.000000
                                                         0.150674       0.000000
                          1       6    2pz               1.581719       2.528434
                                                         0.878733       0.000000
                                                         0.488185       0.000000
                                                         0.271214       0.000000
                                                         0.150674       0.000000

                          1       7    3px               1.581719      -5.190924
                                                         0.878733       2.769386
                                                         0.488185       0.000000
                                                         0.271214       0.000000
                                                         0.150674       0.000000
                          1       7    3py               1.581719      -5.190924
                                                         0.878733       2.769386
                                                         0.488185       0.000000
                                                         0.271214       0.000000
                                                         0.150674       0.000000
                          1       7    3pz               1.581719      -5.190924
                                                         0.878733       2.769386
                                                         0.488185       0.000000
                                                         0.271214       0.000000
                                                         0.150674       0.000000

                          1       8    4px               1.581719       6.563438
                                                         0.878733      -6.599595
                                                         0.488185       2.011013
                                                         0.271214       0.000000
                                                         0.150674       0.000000
                          1       8    4py               1.581719       6.563438
                                                         0.878733      -6.599595
                                                         0.488185       2.011013
                                                         0.271214       0.000000
                                                         0.150674       0.000000
                          1       8    4pz               1.581719       6.563438
                                                         0.878733      -6.599595
                                                         0.488185       2.011013
                                                         0.271214       0.000000
                                                         0.150674       0.000000

                          1       9    5px               1.581719      -3.682097
                                                         0.878733       5.013935
                                                         0.488185      -2.882412
                                                         0.271214       0.684525
                                                         0.150674       0.076428
                          1       9    5py               1.581719      -3.682097
                                                         0.878733       5.013935
                                                         0.488185      -2.882412
                                                         0.271214       0.684525
                                                         0.150674       0.076428
                          1       9    5pz               1.581719      -3.682097
                                                         0.878733       5.013935
                                                         0.488185      -2.882412
                                                         0.271214       0.684525
                                                         0.150674       0.076428

                          2       1    3dx2              0.274043       0.170841
                                                         0.152246       0.000000
                          2       1    3dxy              0.274043       0.295905
                                                         0.152246       0.000000
                          2       1    3dxz              0.274043       0.295905
                                                         0.152246       0.000000
                          2       1    3dy2              0.274043       0.170841
                                                         0.152246       0.000000
                          2       1    3dyz              0.274043       0.295905
                                                         0.152246       0.000000
                          2       1    3dz2              0.274043       0.170841
                                                         0.152246       0.000000

                          2       2    4dx2              0.274043      -0.289923
                                                         0.152246       0.120303
                          2       2    4dxy              0.274043      -0.502161
                                                         0.152246       0.208371
                          2       2    4dxz              0.274043      -0.502161
                                                         0.152246       0.208371
                          2       2    4dy2              0.274043      -0.289923
                                                         0.152246       0.120303
                          2       2    4dyz              0.274043      -0.502161
                                                         0.152246       0.208371
                          2       2    4dz2              0.274043      -0.289923
                                                         0.152246       0.120303

       Atomic covalent radius [Angstrom]:                                  1.180

       Atomic van der Waals radius [Angstrom]:                             1.840

     GTH Potential information for                                    GTH-PBE-q3

       Description:                       Goedecker-Teter-Hutter pseudopotential
                                           Goedecker et al., PRB 54, 1703 (1996)
                                          Hartwigsen et al., PRB 58, 3641 (1998)
                                                      Krack, TCA 114, 145 (2005)

       Gaussian exponent of the core charge distribution:               2.469029
       Electronic configuration (s p d ...):                       2   1   0   0

       Parameters of the local part of the GTH pseudopotential:

                          rloc        C1          C2          C3          C4
                        0.450010   -7.556450

       Parameters of the non-local part of the GTH pseudopotential:

                   l      r(l)      h(i,j,l)

                   0    0.487441    6.960085   -1.888835
                                   -1.888835    2.438483
                   1    0.562274    1.865363

  2. Atomic kind: As                                    Number of atoms:       1

     Orbital Basis Set                                                ccGRB-D-q5

       Number of orbital shell sets:                                           2
       Number of orbital shells:                                               5
       Number of primitive Cartesian functions:                                5
       Number of Cartesian basis functions:                                   14
       Number of spherical basis functions:                                   13
       Norm type:                                                              2

       Normalised Cartesian orbitals:

                        Set   Shell   Orbital            Exponent    Coefficient

                          1       1    1s                1.308334      -0.346314
                                                         0.518984       0.150387
                                                         0.205868       0.162112
                                                         0.081663       0.020417

                          1       2    2s                1.308334       0.319682
                                                         0.518984      -0.195889
                                                         0.205868      -0.325770
                                                         0.081663       0.201839

                          1       3    2px               1.308334      -0.186478
                                                         0.518984       0.186345
                                                         0.205868       0.093801
                                                         0.081663       0.025016
                          1       3    2py               1.308334      -0.186478
                                                         0.518984       0.186345
                                                         0.205868       0.093801
                                                         0.081663       0.025016
                          1       3    2pz               1.308334      -0.186478
                                                         0.518984       0.186345
                                                         0.205868       0.093801
                                                         0.081663       0.025016

                          1       4    3px               1.308334       0.107232
                                                         0.518984      -0.135020
                                                         0.205868      -0.227433
                                                         0.081663       0.090528
                          1       4    3py               1.308334       0.107232
                                                         0.518984      -0.135020
                                                         0.205868      -0.227433
                                                         0.081663       0.090528
                          1       4    3pz               1.308334       0.107232
                                                         0.518984      -0.135020
                                                         0.205868      -0.227433
                                                         0.081663       0.090528

                          2       1    2dx2              0.117023       0.038538
                          2       1    2dxy              0.117023       0.066749
                          2       1    2dxz              0.117023       0.066749
                          2       1    2dy2              0.117023       0.038538
                          2       1    2dyz              0.117023       0.066749
                          2       1    2dz2              0.117023       0.038538

     Auxiliary Fit Basis Set                                          admm-dz-q5

       Number of orbital shell sets:                                           4
       Number of orbital shells:                                               4
       Number of primitive Cartesian functions:                                6
       Number of Cartesian basis functions:                                    8
       Number of spherical basis functions:                                    8
       Norm type:                                                              2

       Normalised Cartesian orbitals:

                        Set   Shell   Orbital            Exponent    Coefficient

                          1       1    2px               0.103254       0.083430
                          1       1    2py               0.103254       0.083430
                          1       1    2pz               0.103254       0.083430

                          2       1    1s                0.127802       0.152340

                          3       1    2px               2.068804      -0.321008
                                                         0.344462       0.388840
                          3       1    2py               2.068804      -0.321008
                                                         0.344462       0.388840
                          3       1    2pz               2.068804      -0.321008
                                                         0.344462       0.388840

                          4       1    1s                1.313346       0.678208
                                                         0.357818      -0.471886

     RI HFX Basis Set                                       As-RI-AUX-admm-dz-q5

       Number of orbital shell sets:                                           2
       Number of orbital shells:                                              17
       Number of primitive Cartesian functions:                                7
       Number of Cartesian basis functions:                                   61
       Number of spherical basis functions:                                   53
       Norm type:                                                              2

       Normalised Cartesian orbitals:

                        Set   Shell   Orbital            Exponent    Coefficient

                          1       1    1s                3.902109       1.978722
                                                         2.167839       0.000000
                                                         1.204355       0.000000
                                                         0.669086       0.000000
                                                         0.371714       0.000000
                                                         0.206508       0.000000

                          1       2    2s                3.902109      -5.360562
                                                         2.167839       3.677000
                                                         1.204355       0.000000
                                                         0.669086       0.000000
                                                         0.371714       0.000000
                                                         0.206508       0.000000

                          1       3    3s                3.902109       8.036133
                                                         2.167839     -10.803897
                                                         1.204355       4.083121
                                                         0.669086       0.000000
                                                         0.371714       0.000000
                                                         0.206508       0.000000

                          1       4    4s                3.902109      -8.827284
                                                         2.167839      16.612404
                                                         1.204355     -12.310035
                                                         0.669086       3.526498
                                                         0.371714       0.000000
                                                         0.206508       0.000000

                          1       5    5s                3.902109       8.140749
                                                         2.167839     -18.436069
                                                         1.204355      19.126100
                                                         0.669086     -10.746943
                                                         0.371714       2.664231
                                                         0.206508       0.000000

                          1       6    6s                3.902109      -6.802256
                                                         2.167839      17.080613
                                                         1.204355     -21.323767
                                                         0.669086      16.777443
                                                         0.371714      -8.160392
                                                         0.206508       1.871515

                          1       7    2px               3.902109       7.817437
                                                         2.167839       0.000000
                                                         1.204355       0.000000
                                                         0.669086       0.000000
                                                         0.371714       0.000000
                                                         0.206508       0.000000
                          1       7    2py               3.902109       7.817437
                                                         2.167839       0.000000
                                                         1.204355       0.000000
                                                         0.669086       0.000000
                                                         0.371714       0.000000
                                                         0.206508       0.000000
                          1       7    2pz               3.902109       7.817437
                                                         2.167839       0.000000
                                                         1.204355       0.000000
                                                         0.669086       0.000000
                                                         0.371714       0.000000
                                                         0.206508       0.000000

                          1       8    3px               3.902109     -16.049352
                                                         2.167839       8.562416
                                                         1.204355       0.000000
                                                         0.669086       0.000000
                                                         0.371714       0.000000
                                                         0.206508       0.000000
                          1       8    3py               3.902109     -16.049352
                                                         2.167839       8.562416
                                                         1.204355       0.000000
                                                         0.669086       0.000000
                                                         0.371714       0.000000
                                                         0.206508       0.000000
                          1       8    3pz               3.902109     -16.049352
                                                         2.167839       8.562416
                                                         1.204355       0.000000
                                                         0.669086       0.000000
                                                         0.371714       0.000000
                                                         0.206508       0.000000

                          1       9    4px               3.902109      20.292902
                                                         2.167839     -20.404693
                                                         1.204355       6.217669
                                                         0.669086       0.000000
                                                         0.371714       0.000000
                                                         0.206508       0.000000
                          1       9    4py               3.902109      20.292902
                                                         2.167839     -20.404693
                                                         1.204355       6.217669
                                                         0.669086       0.000000
                                                         0.371714       0.000000
                                                         0.206508       0.000000
                          1       9    4pz               3.902109      20.292902
                                                         2.167839     -20.404693
                                                         1.204355       6.217669
                                                         0.669086       0.000000
                                                         0.371714       0.000000
                                                         0.206508       0.000000

                          1      10    5px               3.902109     -19.931686
                                                         2.167839      27.141100
                                                         1.204355     -15.602883
                                                         0.669086       3.705425
                                                         0.371714       0.000000
                                                         0.206508       0.000000
                          1      10    5py               3.902109     -19.931686
                                                         2.167839      27.141100
                                                         1.204355     -15.602883
                                                         0.669086       3.705425
                                                         0.371714       0.000000
                                                         0.206508       0.000000
                          1      10    5pz               3.902109     -19.931686
                                                         2.167839      27.141100
                                                         1.204355     -15.602883
                                                         0.669086       3.705425
                                                         0.371714       0.000000
                                                         0.206508       0.000000

                          1      11    6px               3.902109       9.813237
                                                         2.167839     -15.681145
                                                         1.204355      12.212719
                                                         0.669086      -5.476663
                                                         0.371714       1.147998
                                                         0.206508       0.114310
                          1      11    6py               3.902109       9.813237
                                                         2.167839     -15.681145
                                                         1.204355      12.212719
                                                         0.669086      -5.476663
                                                         0.371714       1.147998
                                                         0.206508       0.114310
                          1      11    6pz               3.902109       9.813237
                                                         2.167839     -15.681145
                                                         1.204355      12.212719
                                                         0.669086      -5.476663
                                                         0.371714       1.147998
                                                         0.206508       0.114310

                          1      12    3dx2              3.902109      17.831320
                                                         2.167839       0.000000
                                                         1.204355       0.000000
                                                         0.669086       0.000000
                                                         0.371714       0.000000
                                                         0.206508       0.000000
                          1      12    3dxy              3.902109      30.884752
                                                         2.167839       0.000000
                                                         1.204355       0.000000
                                                         0.669086       0.000000
                                                         0.371714       0.000000
                                                         0.206508       0.000000
                          1      12    3dxz              3.902109      30.884752
                                                         2.167839       0.000000
                                                         1.204355       0.000000
                                                         0.669086       0.000000
                                                         0.371714       0.000000
                                                         0.206508       0.000000
                          1      12    3dy2              3.902109      17.831320
                                                         2.167839       0.000000
                                                         1.204355       0.000000
                                                         0.669086       0.000000
                                                         0.371714       0.000000
                                                         0.206508       0.000000
                          1      12    3dyz              3.902109      30.884752
                                                         2.167839       0.000000
                                                         1.204355       0.000000
                                                         0.669086       0.000000
                                                         0.371714       0.000000
                                                         0.206508       0.000000
                          1      12    3dz2              3.902109      17.831320
                                                         2.167839       0.000000
                                                         1.204355       0.000000
                                                         0.669086       0.000000
                                                         0.371714       0.000000
                                                         0.206508       0.000000

                          1      13    4dx2              3.902109     -30.260315
                                                         2.167839      12.556477
                                                         1.204355       0.000000
                                                         0.669086       0.000000
                                                         0.371714       0.000000
                                                         0.206508       0.000000
                          1      13    4dxy              3.902109     -52.412403
                                                         2.167839      21.748456
                                                         1.204355       0.000000
                                                         0.669086       0.000000
                                                         0.371714       0.000000
                                                         0.206508       0.000000
                          1      13    4dxz              3.902109     -52.412403
                                                         2.167839      21.748456
                                                         1.204355       0.000000
                                                         0.669086       0.000000
                                                         0.371714       0.000000
                                                         0.206508       0.000000
                          1      13    4dy2              3.902109     -30.260315
                                                         2.167839      12.556477
                                                         1.204355       0.000000
                                                         0.669086       0.000000
                                                         0.371714       0.000000
                                                         0.206508       0.000000
                          1      13    4dyz              3.902109     -52.412403
                                                         2.167839      21.748456
                                                         1.204355       0.000000
                                                         0.669086       0.000000
                                                         0.371714       0.000000
                                                         0.206508       0.000000
                          1      13    4dz2              3.902109     -30.260315
                                                         2.167839      12.556477
                                                         1.204355       0.000000
                                                         0.669086       0.000000
                                                         0.371714       0.000000
                                                         0.206508       0.000000

                          1      14    5dx2              3.902109      33.635763
                                                         2.167839     -25.338335
                                                         1.204355       6.215305
                                                         0.669086       0.000000
                                                         0.371714       0.000000
                                                         0.206508       0.000000
                          1      14    5dxy              3.902109      58.258851
                                                         2.167839     -43.887284
                                                         1.204355      10.765225
                                                         0.669086       0.000000
                                                         0.371714       0.000000
                                                         0.206508       0.000000
                          1      14    5dxz              3.902109      58.258851
                                                         2.167839     -43.887284
                                                         1.204355      10.765225
                                                         0.669086       0.000000
                                                         0.371714       0.000000
                                                         0.206508       0.000000
                          1      14    5dy2              3.902109      33.635763
                                                         2.167839     -25.338335
                                                         1.204355       6.215305
                                                         0.669086       0.000000
                                                         0.371714       0.000000
                                                         0.206508       0.000000
                          1      14    5dyz              3.902109      58.258851
                                                         2.167839     -43.887284
                                                         1.204355      10.765225
                                                         0.669086       0.000000
                                                         0.371714       0.000000
                                                         0.206508       0.000000
                          1      14    5dz2              3.902109      33.635763
                                                         2.167839     -25.338335
                                                         1.204355       6.215305
                                                         0.669086       0.000000
                                                         0.371714       0.000000
                                                         0.206508       0.000000

                          1      15    6dx2              3.902109     -30.227905
                                                         2.167839      29.907917
                                                         1.204355     -13.337685
                                                         0.669086       2.616209
                                                         0.371714       0.000000
                                                         0.206508       0.000000
                          1      15    6dxy              3.902109     -52.356267
                                                         2.167839      51.802032
                                                         1.204355     -23.101547
                                                         0.669086       4.531407
                                                         0.371714       0.000000
                                                         0.206508       0.000000
                          1      15    6dxz              3.902109     -52.356267
                                                         2.167839      51.802032
                                                         1.204355     -23.101547
                                                         0.669086       4.531407
                                                         0.371714       0.000000
                                                         0.206508       0.000000
                          1      15    6dy2              3.902109     -30.227905
                                                         2.167839      29.907917
                                                         1.204355     -13.337685
                                                         0.669086       2.616209
                                                         0.371714       0.000000
                                                         0.206508       0.000000
                          1      15    6dyz              3.902109     -52.356267
                                                         2.167839      51.802032
                                                         1.204355     -23.101547
                                                         0.669086       4.531407
                                                         0.371714       0.000000
                                                         0.206508       0.000000
                          1      15    6dz2              3.902109     -30.227905
                                                         2.167839      29.907917
                                                         1.204355     -13.337685
                                                         0.669086       2.616209
                                                         0.371714       0.000000
                                                         0.206508       0.000000

                          1      16    7dx2              3.902109      13.507592
                                                         2.167839     -15.334850
                                                         1.204355       8.986907
                                                         0.669086      -3.208779
                                                         0.371714       0.565501
                                                         0.206508       0.057967
                          1      16    7dxy              3.902109      23.395835
                                                         2.167839     -26.560740
                                                         1.204355      15.565780
                                                         0.669086      -5.557768
                                                         0.371714       0.979476
                                                         0.206508       0.100401
                          1      16    7dxz              3.902109      23.395835
                                                         2.167839     -26.560740
                                                         1.204355      15.565780
                                                         0.669086      -5.557768
                                                         0.371714       0.979476
                                                         0.206508       0.100401
                          1      16    7dy2              3.902109      13.507592
                                                         2.167839     -15.334850
                                                         1.204355       8.986907
                                                         0.669086      -3.208779
                                                         0.371714       0.565501
                                                         0.206508       0.057967
                          1      16    7dyz              3.902109      23.395835
                                                         2.167839     -26.560740
                                                         1.204355      15.565780
                                                         0.669086      -5.557768
                                                         0.371714       0.979476
                                                         0.206508       0.100401
                          1      16    7dz2              3.902109      13.507592
                                                         2.167839     -15.334850
                                                         1.204355       8.986907
                                                         0.669086      -3.208779
                                                         0.371714       0.565501
                                                         0.206508       0.057967

                          2       1    4fx3              0.684077       0.626528
                          2       1    4fx2y             0.684077       1.400959
                          2       1    4fx2z             0.684077       1.400959
                          2       1    4fxy2             0.684077       1.400959
                          2       1    4fxyz             0.684077       2.426532
                          2       1    4fxz2             0.684077       1.400959
                          2       1    4fy3              0.684077       0.626528
                          2       1    4fy2z             0.684077       1.400959
                          2       1    4fyz2             0.684077       1.400959
                          2       1    4fz3              0.684077       0.626528

       Atomic covalent radius [Angstrom]:                                  1.200

       Atomic van der Waals radius [Angstrom]:                             1.850

     GTH Potential information for                                    GTH-PBE-q5

       Description:                       Goedecker-Teter-Hutter pseudopotential
                                           Goedecker et al., PRB 54, 1703 (1996)
                                          Hartwigsen et al., PRB 58, 3641 (1998)
                                                      Krack, TCA 114, 145 (2005)

       Gaussian exponent of the core charge distribution:               1.845000
       Electronic configuration (s p d ...):                       2   3   0   0

       Parameters of the local part of the GTH pseudopotential:

                          rloc        C1          C2          C3          C4
                        0.520579

       Parameters of the non-local part of the GTH pseudopotential:

                   l      r(l)      h(i,j,l)

                   0    0.455551    5.520842    0.035123   -1.061082
                                    0.035123   -1.771175    2.739703
                                   -1.061082    2.739703   -2.174558
                   1    0.554661    1.021797    0.629208
                                    0.629208   -0.744488
                   2    0.703721    0.314791


 MOLECULE KIND INFORMATION


 All atoms are their own molecule, skipping detailed information


 TOTAL NUMBERS AND MAXIMUM NUMBERS

  Total number of            - Atomic kinds:                                   2
                             - Atoms:                                          2
                             - Shell sets:                                     4
                             - Shells:                                        10
                             - Primitive Cartesian functions:                 10
                             - Cartesian basis functions:                     28
                             - Spherical basis functions:                     26

  Maximum angular momentum of- Orbital basis functions:                        2
                             - Local part of the GTH pseudopotential:          0
                             - Non-local part of the GTH pseudopotential:      4

  AUX_FIT ADMM-Basis: 
  Total number of            - Shell sets:                                     8
                             - Shells:                                         8
                             - Primitive Cartesian functions:                 11
                             - Cartesian basis functions:                     16
                             - Spherical basis functions:                     16
                               Maximum angular momentum                        1


 MODULE QUICKSTEP: ATOMIC COORDINATES IN ANGSTROM

   Atom Kind Element         X             Y             Z       Z(eff)     Mass
      1    1 Al   13      0.000000      0.000000      0.000000   3.0000  26.9815
      2    2 As   33      2.006699      1.158568      0.819231   5.0000  74.9216



 SCF PARAMETERS         Density guess:                                    ATOMIC
                        --------------------------------------------------------
                        max_scf:                                             100
                        max_scf_history:                                       0
                        max_diis:                                              4
                        --------------------------------------------------------
                        eps_scf:                                        1.00E-06
                        eps_scf_history:                                0.00E+00
                        eps_diis:                                       1.00E-01
                        eps_eigval:                                     1.00E-05
                        --------------------------------------------------------
                        level_shift [a.u.]:                             0.000000
                        SCF update method:                                MIXING
                        added MOs                                        22    0
                        --------------------------------------------------------
                        Mixing method:                            BROYDEN_MIXING
                                                charge density mixing in g-space
                        --------------------------------------------------------
                        No outer SCF

 PW_GRID| Information for grid number                                          1
 PW_GRID| Grid distributed over                                     4 processors
 PW_GRID| Real space group dimensions                                     4    1
 PW_GRID| the grid is blocked:                                                NO
 PW_GRID| Cutoff [a.u.]                                                    300.0
 PW_GRID| spherical cutoff:                                                   NO
 PW_GRID|   Bounds   1            -30      29                Points:          60
 PW_GRID|   Bounds   2            -30      29                Points:          60
 PW_GRID|   Bounds   3            -30      29                Points:          60
 PW_GRID| Volume element (a.u.^3)  0.1428E-02     Volume (a.u.^3)       308.4738
 PW_GRID| Grid span                                                    FULLSPACE
 PW_GRID|   Distribution                         Average         Max         Min
 PW_GRID|   G-Vectors                            54000.0       54000       54000
 PW_GRID|   G-Rays                                 900.0         900         900
 PW_GRID|   Real Space Points                    54000.0       54000       54000

 PW_GRID| Information for grid number                                          2
 PW_GRID| Number of the reference grid                                         1
 PW_GRID| Grid distributed over                                     4 processors
 PW_GRID| Real space group dimensions                                     4    1
 PW_GRID| the grid is blocked:                                                NO
 PW_GRID| Cutoff [a.u.]                                                    100.0
 PW_GRID| spherical cutoff:                                                   NO
 PW_GRID|   Bounds   1            -18      17                Points:          36
 PW_GRID|   Bounds   2            -18      17                Points:          36
 PW_GRID|   Bounds   3            -18      17                Points:          36
 PW_GRID| Volume element (a.u.^3)  0.6612E-02     Volume (a.u.^3)       308.4738
 PW_GRID| Grid span                                                    FULLSPACE
 PW_GRID|   Distribution                         Average         Max         Min
 PW_GRID|   G-Vectors                            11664.0       11772       11592
 PW_GRID|   G-Rays                                 324.0         327         322
 PW_GRID|   Real Space Points                    11664.0       11664       11664

 PW_GRID| Information for grid number                                          3
 PW_GRID| Number of the reference grid                                         1
 PW_GRID| Grid distributed over                                     4 processors
 PW_GRID| Real space group dimensions                                     4    1
 PW_GRID| the grid is blocked:                                                NO
 PW_GRID| Cutoff [a.u.]                                                     33.3
 PW_GRID| spherical cutoff:                                                   NO
 PW_GRID|   Bounds   1            -10       9                Points:          20
 PW_GRID|   Bounds   2            -10       9                Points:          20
 PW_GRID|   Bounds   3            -10       9                Points:          20
 PW_GRID| Volume element (a.u.^3)  0.3856E-01     Volume (a.u.^3)       308.4738
 PW_GRID| Grid span                                                    FULLSPACE
 PW_GRID|   Distribution                         Average         Max         Min
 PW_GRID|   G-Vectors                             2000.0        2060        1960
 PW_GRID|   G-Rays                                 100.0         103          98
 PW_GRID|   Real Space Points                     2000.0        2000        2000

 PW_GRID| Information for grid number                                          4
 PW_GRID| Number of the reference grid                                         1
 PW_GRID| Grid distributed over                                     4 processors
 PW_GRID| Real space group dimensions                                     4    1
 PW_GRID| the grid is blocked:                                                NO
 PW_GRID| Cutoff [a.u.]                                                     11.1
 PW_GRID| spherical cutoff:                                                   NO
 PW_GRID|   Bounds   1             -6       5                Points:          12
 PW_GRID|   Bounds   2             -6       5                Points:          12
 PW_GRID|   Bounds   3             -6       5                Points:          12
 PW_GRID| Volume element (a.u.^3)  0.1785         Volume (a.u.^3)       308.4738
 PW_GRID| Grid span                                                    FULLSPACE
 PW_GRID|   Distribution                         Average         Max         Min
 PW_GRID|   G-Vectors                              432.0         468         408
 PW_GRID|   G-Rays                                  36.0          39          34
 PW_GRID|   Real Space Points                      432.0         432         432

 POISSON| Solver                                                        PERIODIC
 POISSON| Periodicity                                                        XYZ

 RS_GRID| Information for grid number                                          1
 RS_GRID|   Bounds   1            -30      29                Points:          60
 RS_GRID|   Bounds   2            -30      29                Points:          60
 RS_GRID|   Bounds   3            -30      29                Points:          60
 RS_GRID| Real space fully replicated
 RS_GRID| Group size                                                           1

 RS_GRID| Information for grid number                                          2
 RS_GRID|   Bounds   1            -18      17                Points:          36
 RS_GRID|   Bounds   2            -18      17                Points:          36
 RS_GRID|   Bounds   3            -18      17                Points:          36
 RS_GRID| Real space fully replicated
 RS_GRID| Group size                                                           1

 RS_GRID| Information for grid number                                          3
 RS_GRID|   Bounds   1            -10       9                Points:          20
 RS_GRID|   Bounds   2            -10       9                Points:          20
 RS_GRID|   Bounds   3            -10       9                Points:          20
 RS_GRID| Real space fully replicated
 RS_GRID| Group size                                                           1

 RS_GRID| Information for grid number                                          4
 RS_GRID|   Bounds   1             -6       5                Points:          12
 RS_GRID|   Bounds   2             -6       5                Points:          12
 RS_GRID|   Bounds   3             -6       5                Points:          12
 RS_GRID| Real space fully replicated
 RS_GRID| Group size                                                           1

 *******************************************************************************
                                    Kpoints
 *******************************************************************************
 BRILLOUIN| K-point scheme                                        Monkhorst-Pack
 BRILLOUIN| K-Point grid                                             4    4    4
 BRILLOUIN| K-point symmetry accuracy                               0.100000E-05
 BRILLOUIN| K-Point point group symmetrization                                ON
 BRILLOUIN| Restrict symmetry to inversion                                    ON
 BRILLOUIN| Wavefunction type                                            COMPLEX
 BRILLOUIN| List of Kpoints [2 Pi/Bohr]                                       32
 BRILLOUIN| Number           Weight            X              Y              Z
 BRILLOUIN|     1           0.03125       -0.37500       -0.37500       -0.37500
 BRILLOUIN|     2           0.03125       -0.37500       -0.37500       -0.12500
 BRILLOUIN|     3           0.03125       -0.37500       -0.37500        0.12500
 BRILLOUIN|     4           0.03125       -0.37500       -0.37500        0.37500
 BRILLOUIN|     5           0.03125       -0.37500       -0.12500       -0.37500
 BRILLOUIN|     6           0.03125       -0.37500       -0.12500       -0.12500
 BRILLOUIN|     7           0.03125       -0.37500       -0.12500        0.12500
 BRILLOUIN|     8           0.03125       -0.37500       -0.12500        0.37500
 BRILLOUIN|     9           0.03125       -0.37500        0.12500       -0.37500
 BRILLOUIN|    10           0.03125       -0.37500        0.12500       -0.12500
 BRILLOUIN|    11           0.03125       -0.37500        0.12500        0.12500
 BRILLOUIN|    12           0.03125       -0.37500        0.12500        0.37500
 BRILLOUIN|    13           0.03125       -0.37500        0.37500       -0.37500
 BRILLOUIN|    14           0.03125       -0.37500        0.37500       -0.12500
 BRILLOUIN|    15           0.03125       -0.37500        0.37500        0.12500
 BRILLOUIN|    16           0.03125       -0.37500        0.37500        0.37500
 BRILLOUIN|    17           0.03125       -0.12500       -0.37500       -0.37500
 BRILLOUIN|    18           0.03125       -0.12500       -0.37500       -0.12500
 BRILLOUIN|    19           0.03125       -0.12500       -0.37500        0.12500
 BRILLOUIN|    20           0.03125       -0.12500       -0.37500        0.37500
 BRILLOUIN|    21           0.03125       -0.12500       -0.12500       -0.37500
 BRILLOUIN|    22           0.03125       -0.12500       -0.12500       -0.12500
 BRILLOUIN|    23           0.03125       -0.12500       -0.12500        0.12500
 BRILLOUIN|    24           0.03125       -0.12500       -0.12500        0.37500
 BRILLOUIN|    25           0.03125       -0.12500        0.12500       -0.37500
 BRILLOUIN|    26           0.03125       -0.12500        0.12500       -0.12500
 BRILLOUIN|    27           0.03125       -0.12500        0.12500        0.12500
 BRILLOUIN|    28           0.03125       -0.12500        0.12500        0.37500
 BRILLOUIN|    29           0.03125       -0.12500        0.37500       -0.37500
 BRILLOUIN|    30           0.03125       -0.12500        0.37500       -0.12500
 BRILLOUIN|    31           0.03125       -0.12500        0.37500        0.12500
 BRILLOUIN|    32           0.03125       -0.12500        0.37500        0.37500
 *******************************************************************************

  HFX_INFO| Replica ID:                                                        1
  HFX_INFO| FRACTION:                                               1.0000000000
  HFX_INFO| Interaction Potential:                                     TRUNCATED
  HFX_INFO| Cutoff Radius [angstrom]:                               0.5000000000
  HFX_RI_INFO| RI metric:                                                OVERLAP
  HFX_RI_INFO| RI flavor:                                                    RHO
  HFX_RI_INFO| EPS_FILTER                                                1.0E-09
  HFX_RI_INFO| EPS_FILTER 2-center                                       1.0E-12
  HFX_RI_INFO| EPS_FILTER storage                                        1.0E-11
  HFX_RI_INFO| EPS_FILTER MO                                             1.0E-12
  HFX_RI_INFO| EPS_PGF_ORB                                               1.0E-05
  HFX_RI_INFO| EPS_SCHWARZ:                                              1.0E-10
  HFX_RI_INFO| EPS_SCHWARZ_FORCES:                                       1.0E-08
  HFX_RI_INFO| Minimum block size                                              4
  HFX_RI_INFO| MO block size                                                  64
  HFX_RI_INFO| Memory reduction factor                                         2

 Extrapolation method: initial_guess

 Atomic guess: The first density matrix is obtained in terms of atomic orbitals
               and electronic configurations assigned to each atomic kind

 Guess for atomic kind: Al

 Electronic structure
    Total number of core electrons                                         10.00
    Total number of valence electrons                                       3.00
    Total number of electrons                                              13.00
    Multiplicity                                                   not specified
    S   [  2.00  2.00] 2.00
    P   [  6.00] 1.00


 *******************************************************************************
                  Iteration          Convergence                     Energy [au]
 *******************************************************************************
                          1        0.362263E-01                  -1.859423124102
                          2        0.110518E-01                  -1.862103531914
                          3        0.488479E-04                  -1.862307975378
                          4        0.394947E-05                  -1.862307980596
                          5        0.182220E-05                  -1.862307980635
                          6        0.117851E-05                  -1.862307980641
                          7        0.535179E-08                  -1.862307980645

 Energy components [Hartree]           Total Energy ::           -1.862307980645
                                        Band Energy ::           -0.560772993674
                                     Kinetic Energy ::            0.690311275928
                                   Potential Energy ::           -2.552619256574
                                      Virial (-V/T) ::            3.697780038638
                                        Core Energy ::           -2.742939495151
                                          XC Energy ::           -0.602411565606
                                     Coulomb Energy ::            1.483043080112
                       Total Pseudopotential Energy ::           -3.488946449932
                       Local Pseudopotential Energy ::           -3.970918127335
                    Nonlocal Pseudopotential Energy ::            0.481971677403
                                        Confinement ::            0.556956788533

 Orbital energies  State     L     Occupation   Energy[a.u.]          Energy[eV]

                       1     0          2.000      -0.250432           -6.814591

                       1     1          1.000      -0.059910           -1.630227


 Total Electron Density at R=0:                                         0.000154

 Guess for atomic kind: As

 Electronic structure
    Total number of core electrons                                         28.00
    Total number of valence electrons                                       5.00
    Total number of electrons                                              33.00
    Multiplicity                                                   not specified
    S   [  2.00  2.00  2.00] 2.00
    P   [  6.00  6.00] 3.00
    D   [ 10.00]


 *******************************************************************************
                  Iteration          Convergence                     Energy [au]
 *******************************************************************************
                          1        0.221079                      -5.997085473992
                          2        0.115434                      -6.029860503798
                          3        0.186543E-02                  -6.039999370052
                          4        0.113364E-02                  -6.040000743835
                          5        0.315021E-04                  -6.040001546636
                          6        0.169456E-04                  -6.040001547077
                          7        0.308609E-07                  -6.040001547257

 Energy components [Hartree]           Total Energy ::           -6.040001547257
                                        Band Energy ::           -1.502838275992
                                     Kinetic Energy ::            2.155138915863
                                   Potential Energy ::           -8.195140463120
                                      Virial (-V/T) ::            3.802604278916
                                        Core Energy ::           -9.608839937771
                                          XC Energy ::           -1.391517950849
                                     Coulomb Energy ::            4.960356341363
                       Total Pseudopotential Energy ::          -11.827398422260
                       Local Pseudopotential Energy ::          -12.667394485170
                    Nonlocal Pseudopotential Energy ::            0.839996062911
                                        Confinement ::            0.634195686257

 Orbital energies  State     L     Occupation   Energy[a.u.]          Energy[eV]

                       1     0          2.000      -0.505491          -13.755102

                       1     1          3.000      -0.163952           -4.461368


 Total Electron Density at R=0:                                         0.000359
 Re-scaling the density matrix to get the right number of electrons
                  # Electrons              Trace(P)               Scaling factor
                            8                 8.000                        1.000

 Number of electrons:                                                          8
 Number of occupied orbitals:                                                  4
 Number of molecular orbitals:                                                26

 Number of orbital functions:                                                 26
 Number of independent orbital functions:                                     26


 SCF WAVEFUNCTION OPTIMIZATION

  Step     Update method      Time    Convergence         Total energy    Change
  ------------------------------------------------------------------------------

  KP-HFX_RI_INFO| Number of RI-KP parallel groups:                            1
  KP-HFX_RI_INFO| Tensor stack size:                                         16
  KP-HFX_RI_INFO| RI basis extension radius:                          6.402 Ang
  KP-HFX_RI_INFO| RI basis bump factor and bump radius:       0.850 / 5.442 Ang
  KP-HFX_RI_INFO| The extended RI bases cover up to               43 unit cells
  KP-HFX_RI_INFO| Average number of sgf in extended RI bases:              1880
  KP-HFX_RI_INFO| Consider all image cells within a radius of        10.829 Ang
  KP-HFX_RI_INFO| Number of image cells considered:                         248

     1 NoMix/Diag. 0.15E+00  114.5  2729.78017808        -6.5244451270 -6.52E+00
     2 Broy./Diag. 0.15E+00  110.7     1.12017425        21.1428296157  2.77E+01
     3 Broy./Diag. 0.15E+00  106.0     0.03665703        16.2325891967 -4.91E+00
     4 Broy./Diag. 0.15E+00  103.1     0.00198291        16.3775221549  1.45E-01
     5 Broy./Diag. 0.15E+00   96.1     0.00123117        16.4952375925  1.18E-01
     6 Broy./Diag. 0.15E+00   97.4     0.00008377        16.5104486716  1.52E-02
     7 Broy./Diag. 0.15E+00   89.5     0.00001775        16.5155139547  5.07E-03
     8 Broy./Diag. 0.15E+00   81.4     0.00000246        16.5162533458  7.39E-04
     9 Broy./Diag. 0.15E+00   75.1     0.00000041        16.5162087179 -4.46E-05

  *** SCF run converged in     9 steps ***


  Electronic density on regular grids:         -7.9999999951        0.0000000049
  Core density on regular grids:                8.0000000000       -0.0000000000
  Total charge density on r-space grids:        0.0000000049
  Total charge density g-space grids:           0.0000000049

  Overlap energy of the core charge distribution:               0.00000000019187
  Self energy of the core charge distribution:                -19.18893537233538
  Core Hamiltonian energy:                                     28.37101195479694
  Hartree energy:                                               4.22580092674420
  Exchange-correlation energy:                                  6.35324528147711
  Hartree-Fock Exchange energy:                                -3.24491407302082

  Total energy:                                                16.51620871785391

 !-----------------------------------------------------------------------------!
                     Mulliken Population Analysis

 #  Atom  Element  Kind  Atomic population                           Net charge
       1     Al       1         10.288002                             -7.288002
       2     As       2         -2.288002                              7.288002
 # Total charge                              8.000000                 -0.000000

 !-----------------------------------------------------------------------------!

 !-----------------------------------------------------------------------------!
                           Hirshfeld Charges

  #Atom  Element  Kind  Ref Charge     Population                    Net charge
      1       Al     1       3.000          4.118                        -1.118
      2       As     2       5.000          3.882                         1.118

  Total Charge                                                            0.000
 !-----------------------------------------------------------------------------!

 ENERGY| Total FORCE_EVAL ( QS ) energy [hartree]             16.516208717853914

 -------------------------------------------------------------------------------
 -                                                                             -
 -                                DBCSR STATISTICS                             -
 -                                                                             -
 -------------------------------------------------------------------------------
 COUNTER                                    TOTAL       BLAS       SMM       ACC
 flops    13 x    13 x    26                26364       0.0%      0.0%    100.0%     
 flops    13 x    26 x    13               105456       0.0%      0.0%    100.0%     
 flops inhomo. stacks                           0       0.0%      0.0%      0.0%
 flops total                       131.820000E+03       0.0%      0.0%    100.0%
 flops max/rank                     61.516000E+03       0.0%      0.0%    100.0%
 matmuls inhomo. stacks                         0       0.0%      0.0%      0.0%
 matmuls total                                 15       0.0%      0.0%    100.0%
 number of processed stacks                    15       0.0%      0.0%    100.0%
 average stack size                                     0.0       0.0       1.0
 marketing flops                    81.120000E+03
 -------------------------------------------------------------------------------
 # multiplications                              4
 max memory usage/rank              12.169220E+09
 # max total images/rank                        1
 # max 3D layers                                1
 # MPI messages exchanged                      32
 MPI messages size (bytes):
  total size                        43.264000E+03
  min size                           0.000000E+00
  max size                           2.704000E+03
  average size                       1.352000E+03
 MPI breakdown and total messages size (bytes):
             size <=      128                  10                        0
       128 < size <=     8192                  22                    43264
      8192 < size <=    32768                   0                        0
     32768 < size <=   131072                   0                        0
    131072 < size <=  4194304                   0                        0
   4194304 < size <= 16777216                   0                        0
  16777216 < size                               0                        0
 -------------------------------------------------------------------------------
 -                                                                             -
 -                      DBCSR MESSAGE PASSING PERFORMANCE                      -
 -                                                                             -
 -------------------------------------------------------------------------------
 ROUTINE             CALLS      AVE VOLUME [Bytes]
 MP_Bcast                3                     12.
 MP_Allreduce           35                     18.
 MP_Alltoall          9023                  23066.
 MP_ISend               32                    593.
 MP_IRecv               32                    424.
 -------------------------------------------------------------------------------

 -------------------------------------------------------------------------------
 -                                                                             -
 -                                DBM STATISTICS                               -
 -                                                                             -
 -------------------------------------------------------------------------------
    M  x    N  x    K                                          COUNT     PERCENT
   ??  x   ??  x   ??                                      253856304      61.95%
    ?  x   ??  x   ??                                       51532564      12.58%
   ??  x   ??  x    ?                                       35803031       8.74%
   ??  x    ?  x    ?                                       34177770       8.34%
  ???  x    ?  x    ?                                       15807955       3.86%
    ?  x    ?  x   ??                                        6317454       1.54%
    ?  x   ??  x    ?                                        5457818       1.33%
    ?  x    ?  x    ?                                        3547469       0.87%
    ?  x    ?  x  ???                                        3268488       0.80%
 -------------------------------------------------------------------------------

 -------------------------------------------------------------------------------
 -                                                                             -
 -                                GRID STATISTICS                              -
 -                                                                             -
 -------------------------------------------------------------------------------
 LP    KERNEL             BACKEND                              COUNT     PERCENT
 2     collocate general  GPU                                   9781      20.32%
 2     integrate general  GPU                                   9099      18.90%
 3     collocate general  GPU                                   6360      13.21%
 3     integrate general  GPU                                   5724      11.89%
 1     collocate general  GPU                                   5058      10.51%
 1     integrate general  GPU                                   5058      10.51%
 0     collocate general  GPU                                   2187       4.54%
 0     integrate general  GPU                                   2187       4.54%
 4     collocate general  GPU                                   1410       2.93%
 4     integrate general  GPU                                   1269       2.64%
 -------------------------------------------------------------------------------

 -------------------------------------------------------------------------------
 -                                                                             -
 -                          OFFLOAD MEMPOOL STATISTICS                         -
 -                                                                             -
 -------------------------------------------------------------------------------
 Memory consumption                Number of allocations  Used [MiB]  Size [MiB]
 Device                                               17          13          68
 Host                                               2215         458   133824045
 -------------------------------------------------------------------------------

 MEMORY| Estimated peak process memory [MiB]                                4328

 -------------------------------------------------------------------------------
 ----                             MULTIGRID INFO                            ----
 -------------------------------------------------------------------------------
 count for grid        1:             51          cutoff [a.u.]          300.00
 count for grid        2:           7638          cutoff [a.u.]          100.00
 count for grid        3:          11602          cutoff [a.u.]           33.33
 count for grid        4:          11582          cutoff [a.u.]           11.11
 total gridlevel count  :          30873

 RI-HFX PERFORMANCE| DBT total number of flops:                         9.72E+17
 RI-HFX PERFORMANCE| DBT total execution time:                            842.56
 RI-HFX PERFORMANCE| DBT flop rate (Gflops / MPI rank):                288302.07

 -------------------------------------------------------------------------------
 -                                                                             -
 -                         MESSAGE PASSING PERFORMANCE                         -
 -                                                                             -
 -------------------------------------------------------------------------------

 ROUTINE             CALLS      AVE VOLUME [Bytes]
 MP_Group           397528
 MP_Bcast           191060                    250.
 MP_Allreduce       672221                     60.
 MP_Sync            766551
 MP_Alltoall        237748                   3082.
 MP_SendRecv           234                 143777.
 MP_ISendRecv          219                 140244.
 MP_Wait            216731
 MP_comm_split      184952
 MP_ISend           539096                 254965.
 MP_IRecv           545887                 243921.
 -------------------------------------------------------------------------------


 -------------------------------------------------------------------------------
 -                                                                             -
 -                           R E F E R E N C E S                               -
 -                                                                             -
 -------------------------------------------------------------------------------
 
 CP2K version 2026.2 (Development Version), the CP2K developers group (2026).
 CP2K is freely available from https://www.cp2k.org/ .
 
 M. Iannuzzi, J. Wilhelm, F. Stein, A. Bussy, H. Elgabarty, D. Golze, A. Hehn, 
 M. Graml, S. Marek, B. Sertcan Gökmen, C. Schran, H. Forbert, R. Z. 
 Khaliullin, A. Kozhevnikov, M. Taillefumier, R. Meli, V. V. Rybkin, M. Brehm, 
 R. Schade, O. Schütt, J. V. Pototschnig, H. Mirhosseini, A. Knüpfer, D. Marx, 
 M. Krack, J. Hutter, T. D. Kühne.
 J. Phys. Chem. B 130, 1237-1310 (2026).
 The CP2K Program Package Made Simple.
 https://doi.org/10.1021/acs.jpcb.5c05851

 A. Bussy, J. Hutter.
 J. Chem. Phys. 160, 064116 (2024).
 Efficient periodic resolution-of-the-identity Hartree–Fock exchange method 
 with k-point sampling and Gaussian basis sets.
 https://doi.org/10.1063/5.0189659

 A. Bussy, O. Schuett, J. Hutter.
 J. Chem. Phys. 158, 164109 (2023).
 Sparse tensor based nuclear gradients for periodic Hartree-Fock and low-scaling 
 correlated wave function methods in the CP2K software package: A massively 
 parallel and GPU accelerated implementation..
 https://doi.org/10.1063/5.0144493

 T. D. Kühne, M. Iannuzzi, M. Del Ben, V. V. Rybkin, P. Seewald, F. Stein, T. 
 Laino, R. Z. Khaliullin, O. Schütt, F. Schiffmann, D. Golze, J. Wilhelm, S. 
 Chulkov, M. H. Bani-Hashemian, V. Weber, U. Borstnik, M. Taillefumier, A. S. 
 Jakobovits, A. Lazzaro, H. Pabst, T. Müller, R. Schade, M. Guidon, S. 
 Andermatt, N. Holmberg, G. K. Schenter, A. Hehn, A. Bussy, F. Belleflamme, G. 
 Tabacchi, A. Glöß, M. Lass, I. Bethune, C. J. Mundy, C. Plessl, M. Watkins, 
 J. VandeVondele, M. Krack, J. Hutter.
 J. Chem. Phys. 152, 194103 (2020).
 CP2K: An electronic structure and molecular dynamics software package - 
 Quickstep: Efficient and accurate electronic structure calculations.
 https://doi.org/10.1063/5.0007045

 A. Togo, I. Tanaka.
 arXiv, 1808.01590 (2018).
 Spglib : a software library for crystal symmetry search.

 G. L. Stoychev, A. A. Auer, F. Neese.
 J. Chem. Theory Comput. 13, 554-562 (2017).
 Automatic Generation of Auxiliary Basis Sets.
 https://doi.org/10.1021/acs.jctc.6b01041

 O. Schuett, P. Messmer, J. Hutter, J. VandeVondele.
 Electronic Structure Calculations on Graphics Processing Units, 173-190 (2016).
 GPU-Accelerated Sparse Matrix-Matrix Multiplication for Linear Scaling Density 
 Functional Theory.
 https://doi.org/10.1002/9781118670712.ch8

 A. Heinecke, G. Henry, M. Hutchinson, H. Pabst.
 Proceedings of Intl. Supercomputing Conference, 981-991 (2016).
 LIBXSMM: Accelerating Small Matrix Multiplications by Runtime Code Generation.
 https://doi.org/10.1109/SC.2016.83

 U. Borstnik, J. VandeVondele, V. Weber, J. Hutter.
 Parallel Comput. 40, 47-58 (2014).
 Sparse matrix multiplication: The distributed block-compressed sparse row 
 library.
 https://doi.org/10.1016/j.parco.2014.03.012

 P. Merlot, R. Izsak, A. Borgo, T. Kjaergaard, T. Helgaker, S. Reine.
 J. Chem. Phys. 141, 094104 (2014).
 Charge-constrained auxiliary-density-matrix methods for the Hartree-Fock 
 exchange contribution.
 https://doi.org/10.1063/1.4894267

 M. Guidon, J. Hutter, J. VandeVondele.
 J. Chem. Theory Comput. 6, 2348-2364 (2010).
 Auxiliary Density Matrix Methods for Hartree-Fock Exchange Calculations.
 https://doi.org/10.1021/ct1002225

 M. Guidon, J. Hutter, J. VandeVondele.
 J. Chem. Theory Comput. 5, 3010-3021 (2009).
 Robust Periodic Hartree-Fock Exchange for Large-Scale Simulations Using 
 Gaussian Basis Sets.
 https://doi.org/10.1021/ct900494g

 M. Guidon, F. Schiffmann, J. Hutter, J. VandeVondele.
 J. Chem. Phys. 128, 214104 (2008).
 Ab initio molecular dynamics using hybrid density functionals.
 https://doi.org/10.1063/1.2931945

 J. VandeVondele, M. Krack, F. Mohamed, M. Parrinello, T. Chassaing, J. Hutter.
 Comput. Phys. Commun. 167, 103-128 (2005).
 QUICKSTEP: Fast and accurate density functional calculations using a mixed 
 Gaussian and plane waves approach.
 https://doi.org/10.1016/j.cpc.2004.12.014

 M. Krack.
 Theor. Chem. Acc. 114, 145-152 (2005).
 Pseudopotentials for H to Kr optimized for gradient-corrected 
 exchange-correlation functionals.
 https://doi.org/10.1007/s00214-005-0655-y

 M. Frigo, S. G. Johnson.
 Proc. IEEE 93, 216-231 (2005).
 The design and implementation of FFTW3.
 https://doi.org/10.1109/JPROC.2004.840301

 C. Hartwigsen, S. Goedecker, J. Hutter.
 Phys. Rev. B 58, 3641-3662 (1998).
 Relativistic separable dual-space Gaussian pseudopotentials from H to Rn.
 https://doi.org/10.1103/PhysRevB.58.3641

 G. Lippert, J. Hutter, M. Parrinello.
 Mol. Phys. 92, 477-487 (1997).
 A hybrid Gaussian and plane wave density functional scheme.
 https://doi.org/10.1080/002689797170220

 S. Goedecker, M. Teter, J. Hutter.
 Phys. Rev. B 54, 1703-1710 (1996).
 Separable dual-space Gaussian pseudopotentials.
 https://doi.org/10.1103/PhysRevB.54.1703

 J. P. Perdew, K. Burke, M. Ernzerhof.
 Phys. Rev. Lett. 77, 3865-3868 (1996).
 Generalized gradient approximation made simple.
 https://doi.org/10.1103/PhysRevLett.77.3865

 C.-L. Fu, K.-M. Ho.
 Phys. Rev. B 28, 5480-5486 (1983).
 First-principles calculation of the equilibrium ground-state properties of 
 transition metals: Applications to Nb and Mo.
 https://doi.org/10.1103/PhysRevB.28.5480

 C. G. Broyden.
 Math. Comput. 19, 577-593 (1965).
 A class of methods for solving nonlinear simultaneous equations.
 https://doi.org/10.1090/S0025-5718-1965-0198670-6


 -------------------------------------------------------------------------------
 -                                                                             -
 -                                T I M I N G                                  -
 -                                                                             -
 -------------------------------------------------------------------------------
 SUBROUTINE                       CALLS  ASD         SELF TIME        TOTAL TIME
                                MAXIMUM       AVERAGE  MAXIMUM  AVERAGE  MAXIMUM
 CP2K                                 1  1.0    0.008    0.011  875.321  875.321
 qs_energies                          1  2.0    0.001    0.001  875.081  875.081
 scf_env_do_scf                       1  3.0    0.000    0.000  874.019  874.019
 scf_env_do_scf_inner_loop            9  4.0    0.003    0.003  874.018  874.018
 qs_ks_update_qs_env                  9  5.0    0.000    0.000  872.925  872.959
 rebuild_ks_matrix                    9  6.0    0.000    0.000  872.871  872.905
 qs_ks_build_kohn_sham_matrix         9  7.0    0.003    0.003  872.871  872.905
 hfx_ks_matrix_kp                     9  8.0    0.020    0.021  869.258  869.295
 hfx_ri_update_ks_kp                  9  9.0    0.264    0.269  869.101  869.102
 hfx_ri_update_ks_kp_3c            2439 10.0  100.617  116.287  762.880  762.938
 dbt_total                       254004 10.9    0.840    0.881  718.545  718.577
 dbt_contract                     60296 12.0    1.603    1.697  478.452  478.647
 dbt_tas_multiply                 60316 13.0    0.168    0.181  468.598  468.719
 dbt_tas_total                    68949 13.7    3.481    3.640  468.077  468.082
 dbt_tas_dbm                      60316 15.0    0.204    0.222  344.711  344.737
 dbm_multiply                     60316 17.0  301.257  313.511  301.257  313.511
 dbt_tas_mm_3N                    29302 16.0    0.073    0.075  239.446  248.308
 dbt_copy                        185921 11.9    1.487    1.548  209.954  224.663
 dbt_reshape                     113158 13.0   78.598   88.178  150.837  161.293
 mp_sync                         766551 12.6  101.023  143.479  101.023  143.479
 dbt_tas_mm_2                     29277 16.0    0.111    0.115   66.024   66.028
 mp_waitall_2                    183372 15.3   54.928   65.267   54.928   65.267
 dbt_communicate_buffer          113158 14.0    0.805    0.852   54.230   63.195
 hfx_ri_update_ks_kp_2c            2439 10.0    0.018    0.019   41.827   41.917
 dbt_tas_copy                     72763 12.9   23.190   27.434   35.241   40.724
 convert_to_new_pgrid            180948 15.0    0.725    0.758   35.046   37.909
 dbm_copy                        120632 16.0   34.321   37.186   34.321   37.186
 contract_pmat_3c                     9 10.0    6.747    7.454   36.175   36.176
 dbt_tas_reserve_blocks_index    255912 15.5    4.097    4.458   29.303   32.152
 dbm_reserve_blocks              261468 16.4   26.995   29.629   26.995   29.629
 mp_sum_l                        429631 14.9   17.454   27.467   17.454   27.467
 dbt_tas_replicate                 5556 15.0   12.815   13.788   23.547   24.518
 get_ext_2c_int                    2445 11.0    5.553    6.831   23.723   23.817
 dbt_reserve_blocks_index        177537 14.6    1.572    1.856   18.516   20.565
 dbt_reserve_blocks_index_array  163774 13.8    0.238    0.252   18.118   20.196
 -------------------------------------------------------------------------------

 The number of warnings for this run is : 1
 
 -------------------------------------------------------------------------------
  **** **** ******  **  PROGRAM ENDED AT                 2026-10-02 16:59:51.015
 ***** ** ***  *** **   PROGRAM RAN ON                       cp2k-cuda-cli-s5e39
 **    ****   ******    PROGRAM RAN BY                                       dev
 ***** **    ** ** **   PROGRAM PROCESS ID                                 14361
  **** **  *******  **  PROGRAM STOPPED IN /workspace/cp2k-kpoint-data/advanced/
                                           alas
